* Signature: 0xa9068525120d0d9b
NAME converted_MILP
ROWS
 N  OBJ
 G  c820    
 G  c873    
 G  c396    
 G  c1615   
 G  c1058   
 G  c1161   
 G  c1675   
 G  c653    
 G  c1026   
 G  c743    
 G  c721    
 G  c1576   
 G  c1697   
 G  c698    
 G  c291    
 G  c95     
 G  c67     
 G  c1015   
 G  c812    
 G  c1419   
 G  c792    
 G  c348    
 G  c1589   
 G  c1619   
 G  c1446   
 G  c1610   
 G  c1198   
 G  c885    
 G  c1702   
 G  c1074   
 G  c77     
 G  c1132   
 G  c712    
 G  c148    
 G  c1489   
 G  c1383   
 G  c110    
 G  c372    
 G  c1237   
 G  c1046   
 G  c1604   
 G  c1617   
 G  c423    
 G  c1311   
 G  c459    
 G  c126    
 G  c846    
 G  c298    
 G  c1166   
 G  c635    
 G  c278    
 G  c1176   
 G  c636    
 G  c41     
 G  c761    
 G  c39     
 G  c365    
 G  c926    
 G  c1038   
 G  c1667   
 G  c1290   
 G  c264    
 G  c90     
 G  c1681   
 G  c733    
 G  c1009   
 G  c1055   
 G  c299    
 G  c5      
 G  c1642   
 G  c1016   
 G  c1635   
 G  c580    
 G  c444    
 G  c594    
 G  c1071   
 G  c900    
 G  c786    
 G  c1047   
 G  c29     
 G  c1133   
 G  c789    
 G  c157    
 G  c489    
 G  c394    
 G  c770    
 G  c1180   
 G  c506    
 G  c71     
 G  c1415   
 G  c478    
 G  c832    
 G  c23     
 G  c494    
 G  c257    
 G  c532    
 G  c1294   
 G  c1125   
 G  c1341   
 G  c404    
 G  c2      
 G  c1661   
 G  c384    
 G  c131    
 G  c1103   
 G  c700    
 G  c724    
 G  c1249   
 G  c187    
 G  c202    
 G  c442    
 G  c391    
 G  c694    
 G  c1115   
 G  c608    
 G  c443    
 G  c496    
 G  c881    
 G  c872    
 G  c593    
 G  c702    
 G  c572    
 G  c1351   
 G  c1557   
 G  c964    
 G  c219    
 G  c905    
 G  c1159   
 G  c386    
 G  c336    
 G  c1371   
 G  c127    
 G  c590    
 G  c1509   
 G  c1076   
 G  c143    
 G  c243    
 G  c185    
 G  c82     
 G  c31     
 G  c470    
 G  c587    
 G  c922    
 G  c1210   
 G  c1613   
 G  c468    
 G  c717    
 G  c1149   
 G  c574    
 G  c1220   
 G  c1098   
 G  c607    
 G  c125    
 G  c1067   
 G  c292    
 G  c1494   
 G  c1498   
 G  c632    
 G  c569    
 G  c1013   
 G  c513    
 G  c1083   
 G  c1567   
 G  c208    
 G  c765    
 G  c351    
 G  c973    
 G  c233    
 G  c1477   
 G  c854    
 G  c1123   
 G  c1370   
 G  c1303   
 G  c915    
 G  c1687   
 G  c1286   
 G  c134    
 G  c581    
 G  c816    
 G  c1474   
 G  c916    
 G  c730    
 G  c26     
 G  c387    
 G  c282    
 G  c355    
 G  c366    
 G  c1312   
 G  c81     
 G  c1575   
 G  c736    
 G  c72     
 G  c1543   
 G  c776    
 G  c1550   
 G  c451    
 G  c675    
 G  c677    
 G  c866    
 G  c1227   
 G  c1054   
 G  c1174   
 G  c983    
 G  c1279   
 G  c1034   
 G  c1696   
 G  c1600   
 G  c656    
 G  c100    
 G  c1209   
 G  c1405   
 G  c1203   
 G  c932    
 G  c729    
 G  c1022   
 G  c1572   
 G  c548    
 G  c286    
 G  c501    
 G  c867    
 G  c1245   
 G  c1242   
 G  c471    
 G  c1236   
 G  c948    
 G  c7      
 G  c1597   
 G  c1430   
 G  c810    
 G  c204    
 G  c1455   
 G  c437    
 G  c688    
 G  c1191   
 G  c1533   
 G  c424    
 G  c859    
 G  c1232   
 G  c664    
 G  c1458   
 G  c1108   
 G  c920    
 G  c1660   
 G  c173    
 G  c888    
 G  c1197   
 G  c706    
 G  c215    
 G  c331    
 G  c274    
 G  c1627   
 G  c1278   
 G  c449    
 G  c1271   
 G  c186    
 G  c1282   
 G  c1549   
 G  c1124   
 G  c161    
 G  c439    
 G  c839    
 G  c304    
 G  c1606   
 G  c1211   
 G  c360    
 G  c1147   
 G  c858    
 G  c1259   
 G  c28     
 G  c279    
 G  c216    
 G  c1692   
 G  c309    
 G  c1021   
 G  c764    
 G  c483    
 G  c1235   
 G  c1340   
 G  c1693   
 G  c1500   
 G  c13     
 G  c507    
 G  c1029   
 G  c231    
 G  c340    
 G  c1163   
 G  c241    
 G  c1476   
 G  c158    
 G  c1428   
 G  c595    
 G  c302    
 G  c1002   
 G  c1020   
 G  c603    
 G  c259    
 G  c588    
 G  c15     
 G  c1491   
 G  c843    
 G  c527    
 G  c1493   
 G  c33     
 G  c1394   
 G  c260    
 G  c941    
 G  c432    
 G  c845    
 G  c723    
 G  c993    
 G  c251    
 G  c149    
 G  c887    
 G  c1199   
 G  c848    
 G  c508    
 G  c827    
 G  c1454   
 G  c354    
 G  c1365   
 G  c1601   
 G  c891    
 G  c643    
 G  c1546   
 G  c1360   
 G  c1264   
 G  c1571   
 G  c328    
 G  c1342   
 G  c609    
 G  c430    
 G  c774    
 G  c1345   
 G  c1095   
 G  c1335   
 G  c207    
 G  c113    
 G  c628    
 G  c901    
 G  c697    
 G  c596    
 G  c1184   
 G  c1012   
 G  c1343   
 G  c1514   
 G  c1459   
 G  c462    
 G  c1082   
 G  c584    
 G  c91     
 G  c1190   
 G  c838    
 G  c689    
 G  c1539   
 G  c284    
 G  c244    
 G  c1466   
 G  c411    
 G  c1150   
 G  c498    
 G  c105    
 G  c98     
 G  c431    
 G  c177    
 G  c1292   
 G  c1655   
 G  c633    
 G  c545    
 G  c1452   
 G  c1287   
 G  c392    
 G  c767    
 G  c1066   
 G  c181    
 G  c93     
 G  c1138   
 G  c1506   
 G  c1172   
 G  c1685   
 G  c343    
 G  c288    
 G  c825    
 G  c1389   
 G  c747    
 G  c924    
 G  c1467   
 G  c1357   
 G  c779    
 G  c1214   
 G  c376    
 G  c37     
 G  c1344   
 G  c1410   
 G  c1513   
 G  c1057   
 G  c680    
 G  c406    
 G  c604    
 G  c1534   
 G  c1376   
 G  c240    
 G  c1087   
 G  c1439   
 G  c1420   
 G  c1112   
 G  c899    
 G  c1349   
 G  c232    
 G  c740    
 G  c660    
 G  c642    
 G  c273    
 G  c1347   
 G  c223    
 G  c45     
 G  c358    
 G  c46     
 G  c1623   
 G  c833    
 G  c804    
 G  c842    
 G  c479    
 G  c1689   
 G  c1432   
 G  c821    
 G  c1542   
 G  c1142   
 G  c417    
 G  c874    
 G  c334    
 G  c871    
 G  c1283   
 G  c1559   
 G  c445    
 G  c310    
 G  c577    
 G  c627    
 G  c1540   
 G  c359    
 G  c1336   
 G  c35     
 G  c1698   
 G  c61     
 G  c673    
 G  c968    
 G  c1441   
 G  c369    
 G  c986    
 G  c341    
 G  c178    
 G  c1263   
 G  c428    
 G  c200    
 G  c1215   
 G  c751    
 G  c338    
 G  c88     
 G  c142    
 G  c1081   
 G  c1308   
 G  c683    
 G  c1646   
 G  c1521   
 G  c954    
 G  c1392   
 G  c344    
 G  c1324   
 G  c461    
 G  c1561   
 G  c481    
 G  c352    
 G  c1479   
 G  c1525   
 G  c1579   
 G  c211    
 G  c568    
 G  c1563   
 G  c242    
 G  c1329   
 G  c3      
 G  c1104   
 G  c347    
 G  c133    
 G  c550    
 G  c631    
 G  c357    
 G  c1677   
 G  c1634   
 G  c130    
 G  c1332   
 G  c1270   
 G  c1647   
 G  c1310   
 G  c1423   
 G  c1233   
 G  c562    
 G  c213    
 G  c1109   
 G  c154    
 G  c530    
 G  c44     
 G  c452    
 G  c1503   
 G  c914    
 G  c918    
 G  c120    
 G  c464    
 G  c1659   
 G  c1031   
 G  c1470   
 G  c1637   
 G  c495    
 G  c1179   
 G  c1128   
 G  c857    
 G  c1106   
 G  c960    
 G  c308    
 G  c230    
 G  c690    
 G  c1388   
 G  c1285   
 G  c1186   
 G  c62     
 G  c855    
 G  c1651   
 G  c1535   
 G  c108    
 G  c382    
 G  c685    
 E  c1402   
 E  c559    
 E  c80     
 E  c152    
 E  c553    
 E  c116    
 E  c575    
 E  c405    
 E  c402    
 E  c1005   
 E  c1092   
 E  c224    
 E  c168    
 E  c73     
 E  c1434   
 E  c1255   
 E  c1465   
 E  c1296   
 E  c1678   
 E  c1427   
 E  c49     
 E  c1632   
 E  c1616   
 E  c368    
 E  c630    
 E  c36     
 E  c929    
 E  c6      
 E  c1657   
 E  c1582   
 E  c1621   
 E  c192    
 E  c1075   
 E  c1377   
 E  c646    
 E  c725    
 E  c796    
 E  c732    
 E  c1444   
 E  c947    
 E  c865    
 E  c715    
 E  c129    
 E  c236    
 E  c917    
 E  c227    
 E  c1484   
 E  c1260   
 E  c364    
 E  c121    
 E  c12     
 E  c255    
 E  c367    
 E  c250    
 E  c749    
 E  c711    
 E  c753    
 E  c429    
 E  c809    
 E  c198    
 E  c269    
 E  c1192   
 E  c1602   
 E  c687    
 E  c1382   
 E  c648    
 E  c1315   
 E  c307    
 E  c1603   
 E  c166    
 E  c270    
 E  c1406   
 E  c528    
 E  c1544   
 E  c1346   
 E  c1400   
 E  c160    
 E  c529    
 E  c906    
 E  c830    
 E  c48     
 E  c1043   
 E  c1443   
 E  c144    
 E  c293    
 E  c1522   
 E  c823    
 E  c252    
 E  c206    
 E  c1048   
 E  c1036   
 E  c1090   
 E  c657    
 E  c245    
 E  c977    
 E  c203    
 E  c1252   
 E  c63     
 E  c1120   
 E  c512    
 E  c1670   
 E  c750    
 E  c1059   
 E  c1078   
 E  c280    
 E  c1105   
 E  c999    
 E  c1556   
 E  c499    
 E  c1178   
 E  c741    
 E  c1478   
 E  c974    
 E  c361    
 E  c1320   
 E  c950    
 E  c109    
 E  c463    
 E  c1486   
 E  c1164   
 E  c1008   
 E  c1407   
 E  c1361   
 E  c92     
 E  c1318   
 E  c1363   
 E  c1437   
 E  c484    
 E  c1609   
 E  c644    
 E  c909    
 E  c371    
 E  c561    
 E  c966    
 E  c942    
 E  c74     
 E  c335    
 E  c1690   
 E  c487    
 E  c486    
 E  c1355   
 E  c1652   
 E  c1085   
 E  c1648   
 E  c1629   
 E  c600    
 E  c780    
 E  c1671   
 E  c1037   
 E  c1127   
 E  c1413   
 E  c426    
 E  c267    
 E  c626    
 E  c1314   
 E  c1411   
 E  c453    
 E  c933    
 E  c410    
 E  c500    
 E  c970    
 E  c1424   
 E  c275    
 E  c1299   
 E  c112    
 E  c1502   
 E  c1144   
 E  c773    
 E  c598    
 E  c1218   
 E  c1488   
 E  c1508   
 E  c1487   
 E  c497    
 E  c179    
 E  c1274   
 E  c1156   
 E  c661    
 E  c11     
 E  c980    
 E  c710    
 E  c421    
 E  c1265   
 E  c997    
 E  c611    
 E  c1273   
 E  c737    
 E  c1065   
 E  c791    
 E  c1551   
 E  c552    
 E  c1700   
 E  c1040   
 E  c771    
 E  c485    
 E  c24     
 E  c1267   
 E  c1045   
 E  c1032   
 E  c1167   
 E  c1272   
 E  c831    
 E  c1683   
 E  c1204   
 E  c971    
 E  c1453   
 E  c1643   
 E  c1421   
 E  c1384   
 E  c824    
 E  c79     
 E  c1536   
 E  c1088   
 E  c420    
 E  c393    
 E  c655    
 E  c1490   
 E  c1027   
 E  c271    
 E  c1039   
 E  c89     
 E  c272    
 E  c1302   
 E  c756    
 E  c1338   
 E  c51     
 E  c536    
 E  c297    
 E  c1051   
 E  c1247   
 E  c180    
 E  c910    
 E  c727    
 E  c1295   
 E  c413    
 E  c1044   
 E  c94     
 E  c228    
 E  c547    
 E  c599    
 E  c197    
 E  c744    
 E  c1599   
 E  c819    
 E  c1555   
 E  c1226   
 E  c1674   
 E  c1451   
 E  c14     
 E  c325    
 E  c1243   
 E  c1676   
 E  c897    
 E  c390    
 E  c989    
 E  c505    
 E  c543    
 E  c159    
 E  c1618   
 E  c403    
 E  c1304   
 E  c1262   
 E  c1461   
 E  c1638   
 E  c314    
 E  c1201   
 E  c801    
 E  c83     
 E  c1574   
 E  c378    
 E  c775    
 E  c882    
 E  c652    
 E  c1595   
 E  c1275   
 E  c893    
 E  c320    
 E  c27     
 E  c76     
 E  c805    
 E  c1121   
 E  c132    
 E  c106    
 E  c1662   
 E  c474    
 E  c434    
 E  c296    
 E  c262    
 E  c1116   
 E  c1193   
 E  c938    
 E  c70     
 E  c1219   
 E  c946    
 E  c1322   
 E  c1456   
 E  c1497   
 E  c17     
 E  c1146   
 E  c1181   
 E  c1611   
 E  c951    
 E  c1554   
 E  c363    
 E  c912    
 E  c1445   
 E  c433    
 E  c287    
 E  c362    
 E  c549    
 E  c1473   
 E  c1620   
 E  c1366   
 E  c811    
 E  c446    
 E  c565    
 E  c826    
 E  c1168   
 E  c234    
 E  c1375   
 E  c1      
 E  c1239   
 E  c1130   
 E  c75     
 E  c214    
 E  c398    
 E  c1025   
 E  c1118   
 E  c64     
 E  c209    
 E  c533    
 E  c1625   
 E  c276    
 E  c395    
 E  c1244   
 E  c1631   
 E  c1447   
 E  c537    
 E  c237    
 E  c1331   
 E  c123    
 E  c755    
 E  c1309   
 E  c1089   
 E  c1663   
 E  c782    
 E  c1496   
 E  c1266   
 E  c875    
 E  c1113   
 E  c165    
 E  c542    
 E  c1449   
 E  c985    
 E  c1483   
 E  c261    
 E  c1216   
 E  c778    
 E  c162    
 E  c525    
 E  c745    
 E  c1258   
 E  c735    
 E  c322    
 E  c488    
 E  c975    
 E  c1356   
 E  c435    
 E  c1250   
 E  c613    
 E  c175    
 E  c1334   
 E  c668    
 E  c1289   
 E  c1284   
 E  c1017   
 E  c908    
 E  c518    
 E  c101    
 E  c427    
 E  c1348   
 E  c1202   
 E  c99     
 E  c1213   
 E  c454    
 E  c139    
 E  c1566   
 E  c34     
 E  c1280   
 E  c793    
 E  c1581   
 E  c911    
 E  c708    
 E  c963    
 E  c798    
 E  c1573   
 E  c1337   
 E  c239    
 E  c1418   
 E  c1069   
 E  c1378   
 E  c176    
 E  c66     
 E  c1254   
 E  c301    
 E  c1300   
 E  c59     
 E  c84     
 E  c383    
 E  c1626   
 E  c482    
 E  c1518   
 E  c1169   
 E  c436    
 E  c193    
 E  c281    
 E  c514    
 E  c1393   
 E  c953    
 E  c389    
 E  c504    
 E  c285    
 E  c1607   
 E  c1464   
 E  c621    
 E  c670    
 E  c332    
 E  c319    
 E  c141    
 E  c1188   
 E  c329    
 E  c96     
 E  c1416   
 E  c992    
 E  c246    
 E  c544    
 E  c806    
 E  c313    
 E  c695    
 E  c122    
 E  c1129   
 E  c669    
 E  c647    
 E  c50     
 E  c1261   
 E  c799    
 E  c554    
 E  c817    
 E  c934    
 E  c171    
 E  c1139   
 E  c988    
 E  c40     
 E  c716    
 E  c1558   
 E  c1694   
 E  c614    
 E  c726    
 E  c919    
 E  c841    
 E  c1538   
 E  c1170   
 E  c53     
 E  c4      
 E  c1030   
 E  c414    
 E  c1596   
 E  c1277   
 E  c638    
 E  c1110   
 E  c718    
 E  c1590   
 E  c221    
 E  c1033   
 E  c1000   
 E  c150    
 E  c1612   
 E  c1276   
 E  c1328   
 E  c155    
 E  c1316   
 E  c629    
 E  c1049   
 E  c303    
 E  c1306   
 E  c1268   
 E  c1350   
 E  c709    
 E  c1435   
 E  c47     
 E  c704    
 E  c1056   
 E  c253    
 E  c473    
 E  c1001   
 E  c931    
 E  c182    
 E  c790    
 E  c904    
 E  c861    
 E  c585    
 E  c1516   
 E  c556    
 E  c1520   
 E  c1064   
 E  c860    
 E  c748    
 E  c1004   
 E  c781    
 E  c321    
 E  c763    
 E  c615    
 E  c658    
 E  c381    
 E  c1658   
 E  c1396   
 E  c808    
 E  c412    
 E  c800    
 E  c1151   
 E  c1699   
 E  c622    
 E  c902    
 E  c913    
 E  c610    
 E  c1086   
 E  c671    
 E  c1654   
 E  c943    
 E  c1703   
 E  c349    
 E  c1162   
 E  c766    
 E  c1448   
 E  c665    
 E  c163    
 E  c886    
 E  c379    
 E  c807    
 E  c8      
 E  c1330   
 E  c460    
 E  c560    
 E  c1359   
 E  c541    
 E  c342    
 E  c991    
 E  c925    
 E  c30     
 E  c803    
 E  c1317   
 E  c456    
 E  c1152   
 E  c987    
 E  c1352   
 E  c880    
 E  c399    
 E  c1224   
 E  c616    
 E  c976    
 E  c283    
 E  c720    
 E  c856    
 E  c164    
 E  c1584   
 E  c890    
 E  c589    
 E  c1182   
 E  c1438   
 E  c1367   
 E  c440    
 E  c1436   
 E  c579    
 E  c1475   
 E  c1102   
 E  c1200   
 E  c693    
 E  c1257   
 E  c54     
 E  c210    
 E  c295    
 E  c1194   
 E  c835    
 E  c1630   
 E  c921    
 E  c760    
 E  c1223   
 E  c1077   
 E  c1608   
 E  c1234   
 E  c350    
 E  c1450   
 E  c1217   
 E  c1408   
 E  c32     
 E  c592    
 E  c879    
 E  c353    
 E  c1301   
 E  c184    
 E  c877    
 E  c1564   
 E  c927    
 E  c491    
 E  c1136   
 E  c758    
 E  c1668   
 E  c1063   
 E  c1586   
 E  c1117   
 E  c654    
 E  c1079   
 E  c458    
 E  c582    
 E  c1380   
 E  c86     
 E  c254    
 E  c1143   
 E  c153    
 E  c397    
 E  c1119   
 E  c1358   
 E  c864    
 E  c1570   
 E  c1196   
 E  c617    
 E  c1403   
 E  c1541   
 E  c1228   
 E  c998    
 E  c277    
 E  c939    
 E  c1580   
 E  c1042   
 E  c475    
 E  c829    
 E  c218    
 E  c1463   
 E  c1639   
 E  c672    
 E  c510    
 E  c1372   
 E  c959    
 E  c840    
 E  c146    
 E  c558    
 E  c967    
 E  c1592   
 E  c147    
 E  c813    
 E  c1070   
 E  c1499   
 E  c949    
 E  c1134   
 E  c441    
 E  c1695   
 E  c1482   
 E  c217    
 E  c114    
 E  c409    
 E  c407    
 E  c229    
 E  c1469   
 E  c188    
 E  c620    
 E  c546    
 E  c1395   
 E  c1598   
 E  c1126   
 E  c1028   
 E  c256    
 E  c1326   
 E  c797    
 E  c1645   
 E  c539    
 E  c601    
 E  c962    
 E  c345    
 E  c1019   
 E  c1653   
 E  c466    
 E  c1460   
 E  c1529   
 E  c952    
 E  c492    
 E  c1414   
 E  c618    
 E  c1531   
 E  c1240   
 E  c701    
 E  c337    
 E  c1281   
 E  c419    
 E  c979    
 E  c1288   
 E  c135    
 E  c538    
 E  c57     
 E  c1505   
 E  c1291   
 E  c104    
 E  c1578   
 E  c759    
 E  c503    
 E  c415    
 E  c401    
 E  c1072   
 E  c169    
 E  c1515   
 E  c1512   
 E  c1387   
 E  c52     
 E  c870    
 E  c1253   
 E  c1433   
 E  c294    
 E  c457    
 E  c1587   
 E  c137    
 E  c1409   
 E  c534    
 E  c783    
 E  c306    
 E  c305    
 E  c1605   
 E  c876    
 E  c103    
 E  c612    
 E  c679    
 E  c1354   
 E  c222    
 E  c719    
 E  c183    
 E  c1684   
 E  c935    
 E  c1553   
 E  c1511   
 E  c742    
 E  c172    
 E  c619    
 E  c418    
 E  c136    
 E  c450    
 E  c225    
 E  c416    
 E  c511    
 E  c42     
 E  c316    
 E  c1523   
 E  c317    
 E  c1412   
 E  c762    
 E  c523    
 E  c746    
 E  c268    
 E  c516    
 E  c739    
 E  c18     
 E  c1672   
 E  c263    
 E  c356    
 E  c1644   
 E  c517    
 E  c1649   
 E  c1440   
 E  c1364   
 E  c639    
 E  c455    
 E  c326    
 E  c847    
 E  c1385   
 E  c191    
 E  c156    
 E  c195    
 E  c1080   
 E  c851    
 E  c68     
 E  c21     
 E  c1114   
 E  c480    
 E  c118    
 E  c1519   
 E  c476    
 E  c769    
 E  c520    
 E  c467    
 E  c140    
 E  c863    
 E  c425    
 E  c238    
 E  c333    
 E  c1084   
 E  c151    
 E  c707    
 E  c1053   
 E  c385    
 E  c754    
 E  c190    
 E  c795    
 E  c981    
 E  c650    
 E  c602    
 E  c212    
 E  c524    
 E  c526    
 E  c714    
 E  c814    
 E  c1664   
 E  c1183   
 E  c1175   
 E  c640    
 E  c663    
 E  c649    
 E  c189    
 E  c768    
 E  c170    
 E  c1246   
 E  c1656   
 E  c681    
 E  c1010   
 E  c1205   
 E  c828    
 E  c597    
 E  c1565   
 E  c199    
 E  c578    
 E  c69     
 E  c318    
 E  c896    
 E  c55     
 E  c1429   
 E  c555    
 E  c884    
 E  c772    
 E  c958    
 E  c145    
 E  c1537   
 E  c894    
 E  c956    
 E  c883    
 E  c247    
 E  c1399   
 E  c785    
 E  c1225   
 E  c1397   
 E  c1588   
 E  c889    
 E  c667    
 E  c564    
 E  c1248   
 E  c312    
 E  c982    
 E  c684    
 E  c961    
 E  c676    
 E  c1011   
 E  c20     
 E  c1041   
 E  c138    
 E  c713    
 E  c1425   
 E  c1381   
 E  c78     
 E  c1014   
 E  c1391   
 E  c1688   
 E  c651    
 E  c1238   
 E  c1526   
 E  c174    
 E  c97     
 E  c1472   
 E  c220    
 E  c289    
 E  c1374   
 E  c699    
 E  c895    
 E  c752    
 E  c1510   
 E  c984    
 E  c898    
 E  c940    
 E  c477    
 E  c1480   
 E  c258    
 E  c438    
 E  c1545   
 E  c408    
 E  c1050   
 E  c1006   
 E  c1682   
 E  c373    
 E  c852    
 E  c265    
 E  c1691   
 E  c1431   
 E  c43     
 E  c965    
 E  c1492   
 E  c994    
 E  c1137   
 E  c645    
 E  c38     
 E  c1165   
 E  c1229   
 E  c1207   
 E  c65     
 E  c1442   
 E  c802    
 E  c691    
 E  c290    
 E  c1157   
 E  c1481   
 E  c1636   
 E  c1321   
 E  c1023   
 E  c1145   
 E  c1091   
 E  c1624   
 E  c1386   
 E  c928    
 E  c235    
 E  c1547   
 E  c1305   
 E  c551    
 E  c1686   
 E  c375    
 E  c515    
 E  c1068   
 E  c1640   
 E  c822    
 E  c1173   
 E  c696    
 E  c9      
 E  c1187   
 E  c472    
 E  c955    
 E  c1269   
 E  c1293   
 E  c692    
 E  c117    
 E  c205    
 E  c1401   
 E  c836    
 E  c10     
 E  c323    
 E  c1680   
 E  c674    
 E  c102    
 E  c1353   
 E  c1422   
 E  c201    
 E  c722    
 E  c944    
 E  c339    
 E  c1457   
 E  c1501   
 E  c1111   
 E  c1177   
 E  c1035   
 E  c1552   
 E  c862    
 E  c1231   
 E  c1583   
 E  c834    
 E  c519    
 E  c605    
 E  c346    
 E  c1530   
 E  c115    
 E  c849    
 E  c1122   
 E  c1153   
 E  c738    
 E  c87     
 E  c1158   
 E  c1195   
 E  c19     
 E  c972    
 E  c1148   
 E  c641    
 E  c300    
 E  c370    
 E  c1297   
 E  c1701   
 E  c844    
 E  c1333   
 E  c315    
 E  c540    
 E  c784    
 E  c1485   
 E  c576    
 E  c16     
 E  c1390   
 E  c469    
 E  c1368   
 E  c794    
 E  c1585   
 E  c324    
 E  c936    
 E  c937    
 E  c0      
 E  c1669   
 E  c1073   
 E  c1504   
 E  c1061   
 E  c1369   
 E  c1562   
 E  c1206   
 E  c1093   
 E  c1007   
 E  c490    
 E  c388    
 E  c22     
 E  c1462   
 E  c666    
 E  c1641   
 E  c521    
 E  c1650   
 E  c1528   
 E  c995    
 E  c1327   
 E  c837    
 E  c868    
 E  c1417   
 E  c969    
 E  c60     
 E  c788    
 E  c923    
 E  c111    
 E  c623    
 E  c1568   
 E  c624    
 E  c1398   
 E  c1222   
 E  c1101   
 E  c502    
 E  c757    
 E  c1527   
 E  c1135   
 E  c1003   
 E  c563    
 E  c1298   
 E  c1256   
 E  c448    
 E  c493    
 E  c465    
 E  c1155   
 E  c1524   
 E  c1100   
 E  c686    
 E  c734    
 E  c531    
 E  c1495   
 E  c249    
 E  c815    
 E  c957    
 E  c400    
 E  c1221   
 E  c557    
 E  c907    
 E  c1212   
 E  c1593   
 E  c330    
 E  c535    
 E  c1373   
 E  c1362   
 E  c1339   
 E  c522    
 E  c1307   
 E  c1426   
 E  c1666   
 E  c1140   
 E  c930    
 E  c659    
 E  c1569   
 E  c194    
 E  c1062   
 E  c1319   
 E  c731    
 E  c777    
 E  c892    
 E  c1665   
 E  c662    
 E  c573    
 E  c327    
 E  c1099   
 E  c248    
 E  c903    
 E  c1517   
 E  c1024   
 E  c1313   
 E  c1379   
 E  c25     
 E  c1094   
 E  c850    
 E  c380    
 E  c1060   
 E  c1548   
 E  c1325   
 E  c583    
 E  c1404   
 E  c990    
 E  c1628   
 E  c377    
 E  c311    
 E  c728    
 E  c945    
 E  c226    
 E  c625    
 E  c374    
 E  c1160   
 E  c637    
 E  c196    
 E  c1251   
 E  c1679   
 E  c705    
 E  c1052   
 E  c1131   
 E  c124    
 E  c591    
 E  c1633   
 E  c85     
 E  c678    
 E  c1560   
 E  c1171   
 E  c1622   
 E  c1096   
 E  c567    
 E  c119    
 E  c1323   
 E  c869    
 E  c58     
 E  c570    
 E  c978    
 E  c566    
 E  c1591   
 E  c1577   
 E  c606    
 E  c509    
 E  c128    
 E  c853    
 E  c422    
 E  c1614   
 E  c1018   
 E  c586    
 E  c682    
 E  c1230   
 E  c1189   
 E  c818    
 E  c1141   
 E  c634    
 E  c1097   
 E  c56     
 E  c996    
 E  c1507   
 E  c571    
 E  c1208   
 E  c266    
 E  c1673   
 E  c703    
 E  c1107   
 E  c167    
 E  c1532   
 E  c1185   
 E  c787    
 E  c107    
 E  c1468   
 E  c1154   
 E  c1471   
 E  c447    
 E  c1594   
 E  c878    
 E  c1241   
COLUMNS
    MARKER    'MARKER'                 'INTORG'
    B0(10)    OBJ       7
    B0(10)    c820      -51
    B0(10)    c873      -20
    B0(10)    c200      1
    B0(10)    c1215     1
    B0(10)    c751      -1
    B0(10)    c338      -1
    B0(10)    c88       1
    B0(10)    c429      -1
    B0(10)    c395      -1
    B0(10)    c1117     -1
    B1(6)     OBJ       38
    B1(6)     c200      1
    B1(6)     c1215     1
    B1(6)     c751      -1
    B1(6)     c809      -1
    B1(6)     c1244     -1
    B1(6)     c654      -1
    B2(10)    OBJ       10.4
    B2(10)    c396      44.6
    B2(10)    c1615     -20
    B2(10)    c1215     -1
    B2(10)    c751      1
    B2(10)    c142      1
    B2(10)    c1081     1
    B2(10)    c1308     -1
    B2(10)    c198      -1
    B2(10)    c1631     -1
    B2(10)    c1079     -1
    B3(10)    OBJ       10
    B3(10)    c1058     9
    B3(10)    c1161     -20
    B3(10)    c142      1
    B3(10)    c1081     1
    B3(10)    c1308     -1
    B3(10)    c683      -1
    B3(10)    c1646     1
    B3(10)    c269      -1
    B3(10)    c1447     -1
    B3(10)    c458      -1
    B4(10)    OBJ       5.3
    B4(10)    c1675     45.7
    B4(10)    c653      -20
    B4(10)    c338      -1
    B4(10)    c88       1
    B4(10)    c142      1
    B4(10)    c1081     1
    B4(10)    c1308     -1
    B4(10)    c1192     -1
    B4(10)    c537      -1
    B4(10)    c582      -1
    B5(10)    OBJ       10.1
    B5(10)    c1026     -59.1
    B5(10)    c743      -20
    B5(10)    c142      1
    B5(10)    c1081     1
    B5(10)    c1308     -1
    B5(10)    c1521     -1
    B5(10)    c954      1
    B5(10)    c1602     -1
    B5(10)    c237      -1
    B5(10)    c1380     -1
    B6(10)    OBJ       4
    B6(10)    c721      1
    B6(10)    c1576     -20
    B6(10)    c142      1
    B6(10)    c1081     1
    B6(10)    c1308     -1
    B6(10)    c1392     -1
    B6(10)    c344      1
    B6(10)    c687      -1
    B6(10)    c1331     -1
    B6(10)    c86       -1
    B7(10)    OBJ       7
    B7(10)    c1697     -18
    B7(10)    c698      -20
    B7(10)    c142      1
    B7(10)    c1081     1
    B7(10)    c1308     -1
    B7(10)    c1324     -1
    B7(10)    c461      1
    B7(10)    c1382     -1
    B7(10)    c123      -1
    B7(10)    c254      -1
    B8(10)    OBJ       8.6
    B8(10)    c291      -7.6000000000000014e+00
    B8(10)    c95       -20
    B8(10)    c142      1
    B8(10)    c1081     1
    B8(10)    c1308     -1
    B8(10)    c1561     -1
    B8(10)    c481      1
    B8(10)    c648      -1
    B8(10)    c755      -1
    B8(10)    c1143     -1
    B9(10)    OBJ       41.7
    B9(10)    c67       -40.7
    B9(10)    c1015     -20
    B9(10)    c142      1
    B9(10)    c1081     1
    B9(10)    c1308     -1
    B9(10)    c352      -1
    B9(10)    c1479     1
    B9(10)    c1315     -1
    B9(10)    c1309     -1
    B9(10)    c153      -1
    B10(10)   OBJ       37
    B10(10)   c812      -8
    B10(10)   c1419     -20
    B10(10)   c142      1
    B10(10)   c1081     1
    B10(10)   c1308     -1
    B10(10)   c1525     -1
    B10(10)   c1579     1
    B10(10)   c307      -1
    B10(10)   c1089     -1
    B10(10)   c397      -1
    B11(10)   OBJ       33.1
    B11(10)   c792      -59.1
    B11(10)   c348      -20
    B11(10)   c142      1
    B11(10)   c1081     1
    B11(10)   c1308     -1
    B11(10)   c211      -1
    B11(10)   c568      1
    B11(10)   c1603     -1
    B11(10)   c1663     -1
    B11(10)   c1119     -1
    B12(10)   OBJ       43.4
    B12(10)   c1589     8.6000000000000014e+00
    B12(10)   c1619     -20
    B12(10)   c142      1
    B12(10)   c1081     1
    B12(10)   c1308     -1
    B12(10)   c1563     -1
    B12(10)   c242      1
    B12(10)   c166      -1
    B12(10)   c782      -1
    B12(10)   c1358     -1
    B13(10)   OBJ       41.3
    B13(10)   c1446     -59.3
    B13(10)   c1610     -20
    B13(10)   c142      1
    B13(10)   c1081     1
    B13(10)   c1308     -1
    B13(10)   c1329     -1
    B13(10)   c3        1
    B13(10)   c270      -1
    B13(10)   c1496     -1
    B13(10)   c864      -1
    B14(10)   OBJ       37.2
    B14(10)   c1198     2.1799999999999997e+01
    B14(10)   c885      -20
    B14(10)   c142      1
    B14(10)   c1081     1
    B14(10)   c1308     -1
    B14(10)   c1104     -1
    B14(10)   c347      1
    B14(10)   c1406     -1
    B14(10)   c1266     -1
    B14(10)   c1570     -1
    B15(10)   OBJ       63.2
    B15(10)   c1702     -3.1200000000000003e+01
    B15(10)   c1074     -20
    B15(10)   c142      1
    B15(10)   c1081     1
    B15(10)   c1308     -1
    B15(10)   c133      -1
    B15(10)   c550      1
    B15(10)   c528      -1
    B15(10)   c875      -1
    B15(10)   c1196     -1
    B16(10)   OBJ       62
    B16(10)   c77       -4
    B16(10)   c1132     -20
    B16(10)   c142      1
    B16(10)   c1081     1
    B16(10)   c1308     -1
    B16(10)   c631      -1
    B16(10)   c357      1
    B16(10)   c1544     -1
    B16(10)   c1113     -1
    B16(10)   c617      -1
    B17(10)   OBJ       71.1
    B17(10)   c712      -7.0999999999999943e+00
    B17(10)   c148      -20
    B17(10)   c142      1
    B17(10)   c1081     1
    B17(10)   c1308     -1
    B17(10)   c1677     -1
    B17(10)   c1634     1
    B17(10)   c1346     -1
    B17(10)   c165      -1
    B17(10)   c1403     -1
    B18(6)    OBJ       30.8
    B18(6)    c142      1
    B18(6)    c1081     1
    B18(6)    c1308     -1
    B18(6)    c1400     -1
    B18(6)    c542      -1
    B18(6)    c1541     -1
    B19(10)   OBJ       3
    B19(10)   c1489     -7
    B19(10)   c1383     -20
    B19(10)   c1215     -1
    B19(10)   c751      1
    B19(10)   c683      1
    B19(10)   c1646     -1
    B19(10)   c130      1
    B19(10)   c160      -1
    B19(10)   c1449     -1
    B19(10)   c1228     -1
    B20(10)   OBJ       5.3
    B20(10)   c110      -13.3
    B20(10)   c372      -20
    B20(10)   c338      -1
    B20(10)   c88       1
    B20(10)   c683      1
    B20(10)   c1646     -1
    B20(10)   c130      1
    B20(10)   c529      -1
    B20(10)   c985      -1
    B20(10)   c998      -1
    B21(10)   OBJ       52.8
    B21(10)   c1237     -59.8
    B21(10)   c1046     -20
    B21(10)   c683      1
    B21(10)   c1646     -1
    B21(10)   c1563     -1
    B21(10)   c242      1
    B21(10)   c130      1
    B21(10)   c906      -1
    B21(10)   c1483     -1
    B21(10)   c277      -1
    B22(10)   OBJ       45.6
    B22(10)   c1604     -45.6
    B22(10)   c1617     -20
    B22(10)   c683      1
    B22(10)   c1646     -1
    B22(10)   c1104     -1
    B22(10)   c347      1
    B22(10)   c130      1
    B22(10)   c830      -1
    B22(10)   c261      -1
    B22(10)   c939      -1
    B23(6)    OBJ       39.3
    B23(6)    c683      1
    B23(6)    c1646     -1
    B23(6)    c130      1
    B23(6)    c48       -1
    B23(6)    c1216     -1
    B23(6)    c1580     -1
    B24(10)   OBJ       7
    B24(10)   c423      -43
    B24(10)   c1311     -20
    B24(10)   c1215     -1
    B24(10)   c751      1
    B24(10)   c338      1
    B24(10)   c88       -1
    B24(10)   c1332     1
    B24(10)   c1043     -1
    B24(10)   c778      -1
    B24(10)   c1042     -1
    B25(6)    OBJ       36
    B25(6)    c338      1
    B25(6)    c88       -1
    B25(6)    c1332     1
    B25(6)    c1443     -1
    B25(6)    c162      -1
    B25(6)    c475      -1
    B26(10)   OBJ       5
    B26(10)   c459      59
    B26(10)   c126      -20
    B26(10)   c1215     -1
    B26(10)   c751      1
    B26(10)   c1521     1
    B26(10)   c954      -1
    B26(10)   c1270     1
    B26(10)   c144      -1
    B26(10)   c525      -1
    B26(10)   c829      -1
    B27(10)   OBJ       10.1
    B27(10)   c846      -41.1
    B27(10)   c298      -20
    B27(10)   c1081     -1
    B27(10)   c1308     1
    B27(10)   c1521     1
    B27(10)   c954      -1
    B27(10)   c1270     1
    B27(10)   c293      -1
    B27(10)   c745      -1
    B27(10)   c218      -1
    B28(10)   OBJ       2
    B28(10)   c1166     26
    B28(10)   c635      -20
    B28(10)   c683      -1
    B28(10)   c1646     1
    B28(10)   c1521     1
    B28(10)   c954      -1
    B28(10)   c1270     1
    B28(10)   c1522     -1
    B28(10)   c1258     -1
    B28(10)   c1463     -1
    B29(10)   OBJ       5
    B29(10)   c278      55
    B29(10)   c1176     -20
    B29(10)   c338      -1
    B29(10)   c88       1
    B29(10)   c1521     1
    B29(10)   c954      -1
    B29(10)   c1270     1
    B29(10)   c823      -1
    B29(10)   c735      -1
    B29(10)   c1639     -1
    B30(10)   OBJ       10.1
    B30(10)   c636      3.8999999999999986e+00
    B30(10)   c41       -20
    B30(10)   c1521     1
    B30(10)   c954      -1
    B30(10)   c1392     -1
    B30(10)   c344      1
    B30(10)   c1270     1
    B30(10)   c252      -1
    B30(10)   c322      -1
    B30(10)   c672      -1
    B31(10)   OBJ       11.1
    B31(10)   c761      -1.3100000000000001e+01
    B31(10)   c39       -20
    B31(10)   c1521     1
    B31(10)   c954      -1
    B31(10)   c1324     -1
    B31(10)   c461      1
    B31(10)   c1270     1
    B31(10)   c206      -1
    B31(10)   c488      -1
    B31(10)   c510      -1
    B32(10)   OBJ       7
    B32(10)   c365      3
    B32(10)   c926      -20
    B32(10)   c1521     1
    B32(10)   c954      -1
    B32(10)   c1561     -1
    B32(10)   c481      1
    B32(10)   c1270     1
    B32(10)   c1048     -1
    B32(10)   c975      -1
    B32(10)   c1372     -1
    B33(10)   OBJ       50.9
    B33(10)   c1038     -40.9
    B33(10)   c1667     -20
    B33(10)   c1521     1
    B33(10)   c954      -1
    B33(10)   c352      -1
    B33(10)   c1479     1
    B33(10)   c1270     1
    B33(10)   c1036     -1
    B33(10)   c1356     -1
    B33(10)   c959      -1
    B34(10)   OBJ       46
    B34(10)   c1290     -8
    B34(10)   c264      -20
    B34(10)   c1521     1
    B34(10)   c954      -1
    B34(10)   c1525     -1
    B34(10)   c1579     1
    B34(10)   c1270     1
    B34(10)   c1090     -1
    B34(10)   c435      -1
    B34(10)   c840      -1
    B35(10)   OBJ       41.7
    B35(10)   c90       -58.7
    B35(10)   c1681     -20
    B35(10)   c1521     1
    B35(10)   c954      -1
    B35(10)   c211      -1
    B35(10)   c568      1
    B35(10)   c1270     1
    B35(10)   c657      -1
    B35(10)   c1250     -1
    B35(10)   c146      -1
    B36(10)   OBJ       52.2
    B36(10)   c733      8.7999999999999972e+00
    B36(10)   c1009     -20
    B36(10)   c1521     1
    B36(10)   c954      -1
    B36(10)   c1563     -1
    B36(10)   c242      1
    B36(10)   c1270     1
    B36(10)   c245      -1
    B36(10)   c613      -1
    B36(10)   c558      -1
    B37(10)   OBJ       49.2
    B37(10)   c1055     -58.2
    B37(10)   c299      -20
    B37(10)   c1521     1
    B37(10)   c954      -1
    B37(10)   c1329     -1
    B37(10)   c3        1
    B37(10)   c1270     1
    B37(10)   c977      -1
    B37(10)   c175      -1
    B37(10)   c967      -1
    B38(10)   OBJ       44.7
    B38(10)   c5        2.3299999999999997e+01
    B38(10)   c1642     -20
    B38(10)   c1521     1
    B38(10)   c954      -1
    B38(10)   c1104     -1
    B38(10)   c347      1
    B38(10)   c1270     1
    B38(10)   c203      -1
    B38(10)   c1334     -1
    B38(10)   c1592     -1
    B39(10)   OBJ       73.3
    B39(10)   c1016     -32.3
    B39(10)   c1635     -20
    B39(10)   c1521     1
    B39(10)   c954      -1
    B39(10)   c133      -1
    B39(10)   c550      1
    B39(10)   c1270     1
    B39(10)   c1252     -1
    B39(10)   c668      -1
    B39(10)   c147      -1
    B40(10)   OBJ       72.2
    B40(10)   c580      -5.2000000000000028e+00
    B40(10)   c444      -20
    B40(10)   c1521     1
    B40(10)   c954      -1
    B40(10)   c631      -1
    B40(10)   c357      1
    B40(10)   c1270     1
    B40(10)   c63       -1
    B40(10)   c1289     -1
    B40(10)   c813      -1
    B41(10)   OBJ       81.3
    B41(10)   c594      -8.2999999999999972e+00
    B41(10)   c1071     -20
    B41(10)   c1521     1
    B41(10)   c954      -1
    B41(10)   c1677     -1
    B41(10)   c1634     1
    B41(10)   c1270     1
    B41(10)   c1120     -1
    B41(10)   c1284     -1
    B41(10)   c1070     -1
    B42(6)    OBJ       40.3
    B42(6)    c1521     1
    B42(6)    c954      -1
    B42(6)    c1270     1
    B42(6)    c512      -1
    B42(6)    c1017     -1
    B42(6)    c1499     -1
    B43(10)   OBJ       12.2
    B43(10)   c900      -2.1999999999999993e+00
    B43(10)   c786      -20
    B43(10)   c1215     -1
    B43(10)   c751      1
    B43(10)   c1392     1
    B43(10)   c344      -1
    B43(10)   c1647     1
    B43(10)   c1670     -1
    B43(10)   c908      -1
    B43(10)   c949      -1
    B44(10)   OBJ       10.7
    B44(10)   c1047     -36.7
    B44(10)   c29       -20
    B44(10)   c683      -1
    B44(10)   c1646     1
    B44(10)   c1392     1
    B44(10)   c344      -1
    B44(10)   c1647     1
    B44(10)   c750      -1
    B44(10)   c518      -1
    B44(10)   c1134     -1
    B45(10)   OBJ       5.3
    B45(10)   c1133     6.9999999999999929e-01
    B45(10)   c789      -20
    B45(10)   c338      -1
    B45(10)   c88       1
    B45(10)   c1392     1
    B45(10)   c344      -1
    B45(10)   c1647     1
    B45(10)   c1059     -1
    B45(10)   c101      -1
    B45(10)   c441      -1
    B46(10)   OBJ       3
    B46(10)   c157      -59
    B46(10)   c489      -20
    B46(10)   c1392     1
    B46(10)   c344      -1
    B46(10)   c1324     -1
    B46(10)   c461      1
    B46(10)   c1647     1
    B46(10)   c1078     -1
    B46(10)   c427      -1
    B46(10)   c1695     -1
    B47(10)   OBJ       5.8
    B47(10)   c394      -49.8
    B47(10)   c770      -20
    B47(10)   c1392     1
    B47(10)   c344      -1
    B47(10)   c1561     -1
    B47(10)   c481      1
    B47(10)   c1647     1
    B47(10)   c280      -1
    B47(10)   c1348     -1
    B47(10)   c1482     -1
    B48(10)   OBJ       35.9
    B48(10)   c1180     -51.9
    B48(10)   c506      -20
    B48(10)   c1392     1
    B48(10)   c344      -1
    B48(10)   c1525     -1
    B48(10)   c1579     1
    B48(10)   c1647     1
    B48(10)   c1105     -1
    B48(10)   c1202     -1
    B48(10)   c217      -1
    B49(10)   OBJ       42
    B49(10)   c71       -35
    B49(10)   c1415     -20
    B49(10)   c1392     1
    B49(10)   c344      -1
    B49(10)   c1563     -1
    B49(10)   c242      1
    B49(10)   c1647     1
    B49(10)   c999      -1
    B49(10)   c99       -1
    B49(10)   c114      -1
    B50(10)   OBJ       34.9
    B50(10)   c478      -20.9
    B50(10)   c832      -20
    B50(10)   c1392     1
    B50(10)   c344      -1
    B50(10)   c1104     -1
    B50(10)   c347      1
    B50(10)   c1647     1
    B50(10)   c1556     -1
    B50(10)   c1213     -1
    B50(10)   c409      -1
    B51(10)   OBJ       63.2
    B51(10)   c23       -50.2
    B51(10)   c494      -20
    B51(10)   c1392     1
    B51(10)   c344      -1
    B51(10)   c631      -1
    B51(10)   c357      1
    B51(10)   c1647     1
    B51(10)   c499      -1
    B51(10)   c454      -1
    B51(10)   c407      -1
    B52(10)   OBJ       72
    B52(10)   c257      -53
    B52(10)   c532      -20
    B52(10)   c1392     1
    B52(10)   c344      -1
    B52(10)   c1677     -1
    B52(10)   c1634     1
    B52(10)   c1647     1
    B52(10)   c1178     -1
    B52(10)   c139      -1
    B52(10)   c229      -1
    B53(6)    OBJ       33.3
    B53(6)    c1392     1
    B53(6)    c344      -1
    B53(6)    c1647     1
    B53(6)    c741      -1
    B53(6)    c1566     -1
    B53(6)    c1469     -1
    B54(10)   OBJ       14.1
    B54(10)   c1294     1.1899999999999999e+01
    B54(10)   c1125     -20
    B54(10)   c1215     -1
    B54(10)   c751      1
    B54(10)   c1324     1
    B54(10)   c461      -1
    B54(10)   c1310     1
    B54(10)   c1478     -1
    B54(10)   c34       -1
    B54(10)   c188      -1
    B55(10)   OBJ       12.2
    B55(10)   c1341     -22.2
    B55(10)   c404      -20
    B55(10)   c683      -1
    B55(10)   c1646     1
    B55(10)   c1324     1
    B55(10)   c461      -1
    B55(10)   c1310     1
    B55(10)   c974      -1
    B55(10)   c1280     -1
    B55(10)   c620      -1
    B56(10)   OBJ       7
    B56(10)   c2        15
    B56(10)   c1661     -20
    B56(10)   c338      -1
    B56(10)   c88       1
    B56(10)   c1324     1
    B56(10)   c461      -1
    B56(10)   c1310     1
    B56(10)   c361      -1
    B56(10)   c793      -1
    B56(10)   c546      -1
    B57(10)   OBJ       3
    B57(10)   c384      -27
    B57(10)   c131      -20
    B57(10)   c1392     -1
    B57(10)   c344      1
    B57(10)   c1324     1
    B57(10)   c461      -1
    B57(10)   c1310     1
    B57(10)   c1320     -1
    B57(10)   c1581     -1
    B57(10)   c1395     -1
    B58(10)   OBJ       5
    B58(10)   c1103     -33
    B58(10)   c700      -20
    B58(10)   c1324     1
    B58(10)   c461      -1
    B58(10)   c1561     -1
    B58(10)   c481      1
    B58(10)   c1310     1
    B58(10)   c950      -1
    B58(10)   c911      -1
    B58(10)   c1598     -1
    B59(10)   OBJ       35.3
    B59(10)   c724      -35.3
    B59(10)   c1249     -20
    B59(10)   c1324     1
    B59(10)   c461      -1
    B59(10)   c1525     -1
    B59(10)   c1579     1
    B59(10)   c1310     1
    B59(10)   c109      -1
    B59(10)   c708      -1
    B59(10)   c1126     -1
    B60(10)   OBJ       41.2
    B60(10)   c187      -1.8200000000000003e+01
    B60(10)   c202      -20
    B60(10)   c1324     1
    B60(10)   c461      -1
    B60(10)   c1563     -1
    B60(10)   c242      1
    B60(10)   c1310     1
    B60(10)   c463      -1
    B60(10)   c963      -1
    B60(10)   c1028     -1
    B61(10)   OBJ       33.5
    B61(10)   c442      -3.5
    B61(10)   c391      -20
    B61(10)   c1324     1
    B61(10)   c461      -1
    B61(10)   c1104     -1
    B61(10)   c347      1
    B61(10)   c1310     1
    B61(10)   c1486     -1
    B61(10)   c798      -1
    B61(10)   c256      -1
    B62(10)   OBJ       64.2
    B62(10)   c694      -35.2
    B62(10)   c1115     -20
    B62(10)   c1324     1
    B62(10)   c461      -1
    B62(10)   c631      -1
    B62(10)   c357      1
    B62(10)   c1310     1
    B62(10)   c1164     -1
    B62(10)   c1573     -1
    B62(10)   c1326     -1
    B63(10)   OBJ       72.8
    B63(10)   c608      -37.8
    B63(10)   c443      -20
    B63(10)   c1324     1
    B63(10)   c461      -1
    B63(10)   c1677     -1
    B63(10)   c1634     1
    B63(10)   c1310     1
    B63(10)   c1008     -1
    B63(10)   c1337     -1
    B63(10)   c797      -1
    B64(6)    OBJ       35.3
    B64(6)    c1324     1
    B64(6)    c461      -1
    B64(6)    c1310     1
    B64(6)    c1407     -1
    B64(6)    c239      -1
    B64(6)    c1645     -1
    B65(10)   OBJ       11.1
    B65(10)   c496      2.8999999999999986e+00
    B65(10)   c881      -20
    B65(10)   c1215     -1
    B65(10)   c751      1
    B65(10)   c1561     1
    B65(10)   c481      -1
    B65(10)   c1423     1
    B65(10)   c1361     -1
    B65(10)   c1418     -1
    B65(10)   c539      -1
    B66(10)   OBJ       8.6
    B66(10)   c872      -30.6
    B66(10)   c593      -20
    B66(10)   c683      -1
    B66(10)   c1646     1
    B66(10)   c1561     1
    B66(10)   c481      -1
    B66(10)   c1423     1
    B66(10)   c92       -1
    B66(10)   c1069     -1
    B66(10)   c601      -1
    B67(10)   OBJ       5
    B67(10)   c702      5
    B67(10)   c572      -20
    B67(10)   c338      -1
    B67(10)   c88       1
    B67(10)   c1561     1
    B67(10)   c481      -1
    B67(10)   c1423     1
    B67(10)   c1318     -1
    B67(10)   c1378     -1
    B67(10)   c962      -1
    B68(10)   OBJ       5.8
    B68(10)   c1351     -41.8
    B68(10)   c1557     -20
    B68(10)   c1392     -1
    B68(10)   c344      1
    B68(10)   c1561     1
    B68(10)   c481      -1
    B68(10)   c1423     1
    B68(10)   c1363     -1
    B68(10)   c176      -1
    B68(10)   c345      -1
    B69(10)   OBJ       5
    B69(10)   c964      -57
    B69(10)   c219      -20
    B69(10)   c1324     -1
    B69(10)   c461      1
    B69(10)   c1561     1
    B69(10)   c481      -1
    B69(10)   c1423     1
    B69(10)   c1437     -1
    B69(10)   c66       -1
    B69(10)   c1019     -1
    B70(10)   OBJ       40.3
    B70(10)   c905      -52.3
    B70(10)   c1159     -20
    B70(10)   c1561     1
    B70(10)   c481      -1
    B70(10)   c1525     -1
    B70(10)   c1579     1
    B70(10)   c1423     1
    B70(10)   c484      -1
    B70(10)   c1254     -1
    B70(10)   c1653     -1
    B71(10)   OBJ       46
    B71(10)   c386      -35
    B71(10)   c336      -20
    B71(10)   c1561     1
    B71(10)   c481      -1
    B71(10)   c1563     -1
    B71(10)   c242      1
    B71(10)   c1423     1
    B71(10)   c1609     -1
    B71(10)   c301      -1
    B71(10)   c466      -1
    B72(10)   OBJ       38
    B72(10)   c1371     -20
    B72(10)   c127      -20
    B72(10)   c1561     1
    B72(10)   c481      -1
    B72(10)   c1104     -1
    B72(10)   c347      1
    B72(10)   c1423     1
    B72(10)   c644      -1
    B72(10)   c1300     -1
    B72(10)   c1460     -1
    B73(10)   OBJ       68.9
    B73(10)   c590      -5.1900000000000006e+01
    B73(10)   c1509     -20
    B73(10)   c1561     1
    B73(10)   c481      -1
    B73(10)   c631      -1
    B73(10)   c357      1
    B73(10)   c1423     1
    B73(10)   c909      -1
    B73(10)   c59       -1
    B73(10)   c1529     -1
    B74(10)   OBJ       77.6
    B74(10)   c1076     -5.4599999999999994e+01
    B74(10)   c143      -20
    B74(10)   c1561     1
    B74(10)   c481      -1
    B74(10)   c1677     -1
    B74(10)   c1634     1
    B74(10)   c1423     1
    B74(10)   c371      -1
    B74(10)   c84       -1
    B74(10)   c952      -1
    B75(6)    OBJ       39
    B75(6)    c1561     1
    B75(6)    c481      -1
    B75(6)    c1423     1
    B75(6)    c561      -1
    B75(6)    c383      -1
    B75(6)    c492      -1
    B76(10)   OBJ       52.2
    B76(10)   c243      -38.2
    B76(10)   c185      -20
    B76(10)   c1215     -1
    B76(10)   c751      1
    B76(10)   c352      1
    B76(10)   c1479     -1
    B76(10)   c1233     1
    B76(10)   c966      -1
    B76(10)   c1626     -1
    B76(10)   c1414     -1
    B77(10)   OBJ       46
    B77(10)   c82       -36
    B77(10)   c31       -20
    B77(10)   c338      -1
    B77(10)   c88       1
    B77(10)   c352      1
    B77(10)   c1479     -1
    B77(10)   c1233     1
    B77(10)   c942      -1
    B77(10)   c482      -1
    B77(10)   c618      -1
    B78(10)   OBJ       5
    B78(10)   c470      -17
    B78(10)   c587      -20
    B78(10)   c352      1
    B78(10)   c1479     -1
    B78(10)   c1525     -1
    B78(10)   c1579     1
    B78(10)   c1233     1
    B78(10)   c74       -1
    B78(10)   c1518     -1
    B78(10)   c1531     -1
    B79(10)   OBJ       5
    B79(10)   c922      6
    B79(10)   c1210     -20
    B79(10)   c352      1
    B79(10)   c1479     -1
    B79(10)   c1563     -1
    B79(10)   c242      1
    B79(10)   c1233     1
    B79(10)   c335      -1
    B79(10)   c1169     -1
    B79(10)   c1240     -1
    B80(10)   OBJ       14.1
    B80(10)   c1613     3.8999999999999986e+00
    B80(10)   c468      -20
    B80(10)   c352      1
    B80(10)   c1479     -1
    B80(10)   c1104     -1
    B80(10)   c347      1
    B80(10)   c1233     1
    B80(10)   c1690     -1
    B80(10)   c436      -1
    B80(10)   c701      -1
    B81(10)   OBJ       37.7
    B81(10)   c717      -46.7
    B81(10)   c1149     -20
    B81(10)   c352      1
    B81(10)   c1479     -1
    B81(10)   c133      -1
    B81(10)   c550      1
    B81(10)   c1233     1
    B81(10)   c487      -1
    B81(10)   c193      -1
    B81(10)   c337      -1
    B82(10)   OBJ       34.4
    B82(10)   c574      -17.4
    B82(10)   c1220     -20
    B82(10)   c352      1
    B82(10)   c1479     -1
    B82(10)   c631      -1
    B82(10)   c357      1
    B82(10)   c1233     1
    B82(10)   c486      -1
    B82(10)   c281      -1
    B82(10)   c1281     -1
    B83(10)   OBJ       39
    B83(10)   c1098     -16
    B83(10)   c607      -20
    B83(10)   c352      1
    B83(10)   c1479     -1
    B83(10)   c1677     -1
    B83(10)   c1634     1
    B83(10)   c1233     1
    B83(10)   c1355     -1
    B83(10)   c514      -1
    B83(10)   c419      -1
    B84(6)    OBJ       33.5
    B84(6)    c352      1
    B84(6)    c1479     -1
    B84(6)    c1233     1
    B84(6)    c1652     -1
    B84(6)    c1393     -1
    B84(6)    c979      -1
    B85(10)   OBJ       41.2
    B85(10)   c125      -59.2
    B85(10)   c1067     -20
    B85(10)   c338      -1
    B85(10)   c88       1
    B85(10)   c1525     1
    B85(10)   c1579     -1
    B85(10)   c562      1
    B85(10)   c1085     -1
    B85(10)   c953      -1
    B85(10)   c1288     -1
    B86(10)   OBJ       7
    B86(10)   c292      -24
    B86(10)   c1494     -20
    B86(10)   c1525     1
    B86(10)   c1579     -1
    B86(10)   c1563     -1
    B86(10)   c242      1
    B86(10)   c562      1
    B86(10)   c1648     -1
    B86(10)   c389      -1
    B86(10)   c135      -1
    B87(10)   OBJ       11.1
    B87(10)   c1498     -21.1
    B87(10)   c632      -20
    B87(10)   c1525     1
    B87(10)   c1579     -1
    B87(10)   c1104     -1
    B87(10)   c347      1
    B87(10)   c562      1
    B87(10)   c1629     -1
    B87(10)   c504      -1
    B87(10)   c538      -1
    B88(10)   OBJ       37.5
    B88(10)   c569      -48.5
    B88(10)   c1013     -20
    B88(10)   c1525     1
    B88(10)   c1579     -1
    B88(10)   c631      -1
    B88(10)   c357      1
    B88(10)   c562      1
    B88(10)   c600      -1
    B88(10)   c285      -1
    B88(10)   c57       -1
    B89(10)   OBJ       43
    B89(10)   c513      -48
    B89(10)   c1083     -20
    B89(10)   c1525     1
    B89(10)   c1579     -1
    B89(10)   c1677     -1
    B89(10)   c1634     1
    B89(10)   c562      1
    B89(10)   c780      -1
    B89(10)   c1607     -1
    B89(10)   c1505     -1
    B90(6)    OBJ       31.6
    B90(6)    c1525     1
    B90(6)    c1579     -1
    B90(6)    c562      1
    B90(6)    c1671     -1
    B90(6)    c1464     -1
    B90(6)    c1291     -1
    B91(10)   OBJ       48.1
    B91(10)   c1567     -2.1000000000000014e+00
    B91(10)   c208      -20
    B91(10)   c1215     -1
    B91(10)   c751      1
    B91(10)   c213      1
    B91(10)   c1109     1
    B91(10)   c154      -1
    B91(10)   c1037     -1
    B91(10)   c621      -1
    B91(10)   c104      -1
    B92(10)   OBJ       47.1
    B92(10)   c765      -37.1
    B92(10)   c351      -20
    B92(10)   c683      -1
    B92(10)   c1646     1
    B92(10)   c213      1
    B92(10)   c1109     1
    B92(10)   c154      -1
    B92(10)   c1127     -1
    B92(10)   c670      -1
    B92(10)   c1578     -1
    B93(10)   OBJ       41.7
    B93(10)   c973      2.9999999999999716e-01
    B93(10)   c233      -20
    B93(10)   c338      -1
    B93(10)   c88       1
    B93(10)   c213      1
    B93(10)   c1109     1
    B93(10)   c154      -1
    B93(10)   c1413     -1
    B93(10)   c332      -1
    B93(10)   c759      -1
    B94(10)   OBJ       36.4
    B94(10)   c1477     -40.4
    B94(10)   c854      -20
    B94(10)   c1392     -1
    B94(10)   c344      1
    B94(10)   c213      1
    B94(10)   c1109     1
    B94(10)   c154      -1
    B94(10)   c426      -1
    B94(10)   c319      -1
    B94(10)   c503      -1
    B95(10)   OBJ       35.6
    B95(10)   c1123     -55.6
    B95(10)   c1370     -20
    B95(10)   c1324     -1
    B95(10)   c461      1
    B95(10)   c213      1
    B95(10)   c1109     1
    B95(10)   c154      -1
    B95(10)   c267      -1
    B95(10)   c141      -1
    B95(10)   c415      -1
    B96(10)   OBJ       40.6
    B96(10)   c1303     -48.6
    B96(10)   c915      -20
    B96(10)   c1561     -1
    B96(10)   c481      1
    B96(10)   c213      1
    B96(10)   c1109     1
    B96(10)   c154      -1
    B96(10)   c626      -1
    B96(10)   c1188     -1
    B96(10)   c401      -1
    B97(10)   OBJ       5.3
    B97(10)   c1687     -13.3
    B97(10)   c1286     -20
    B97(10)   c352      -1
    B97(10)   c1479     1
    B97(10)   c213      1
    B97(10)   c1109     1
    B97(10)   c154      -1
    B97(10)   c1314     -1
    B97(10)   c329      -1
    B97(10)   c1072     -1
    B98(10)   OBJ       2
    B98(10)   c134      18
    B98(10)   c581      -20
    B98(10)   c1525     -1
    B98(10)   c1579     1
    B98(10)   c213      1
    B98(10)   c1109     1
    B98(10)   c154      -1
    B98(10)   c1411     -1
    B98(10)   c96       -1
    B98(10)   c169      -1
    B99(10)   OBJ       5
    B99(10)   c816      -40
    B99(10)   c1474     -20
    B99(10)   c211      -1
    B99(10)   c568      1
    B99(10)   c213      1
    B99(10)   c1109     1
    B99(10)   c154      -1
    B99(10)   c453      -1
    B99(10)   c1416     -1
    B99(10)   c1515     -1
    B100(10)  OBJ       5.8
    B100(10)  c916      37.2
    B100(10)  c730      -20
    B100(10)  c1563     -1
    B100(10)  c242      1
    B100(10)  c213      1
    B100(10)  c1109     1
    B100(10)  c154      -1
    B100(10)  c933      -1
    B100(10)  c992      -1
    B100(10)  c1512     -1
    B101(10)  OBJ       6
    B101(10)  c26       -47
    B101(10)  c387      -20
    B101(10)  c213      1
    B101(10)  c1109     1
    B101(10)  c154      -1
    B101(10)  c530      -1
    B101(10)  c44       1
    B101(10)  c410      -1
    B101(10)  c246      -1
    B101(10)  c1387     -1
    B102(10)  OBJ       8
    B102(10)  c282      -35
    B102(10)  c355      -20
    B102(10)  c1329     -1
    B102(10)  c3        1
    B102(10)  c213      1
    B102(10)  c1109     1
    B102(10)  c154      -1
    B102(10)  c500      -1
    B102(10)  c544      -1
    B102(10)  c52       -1
    B103(10)  OBJ       9.4
    B103(10)  c366      40.6
    B103(10)  c1312     -20
    B103(10)  c1104     -1
    B103(10)  c347      1
    B103(10)  c213      1
    B103(10)  c1109     1
    B103(10)  c154      -1
    B103(10)  c970      -1
    B103(10)  c806      -1
    B103(10)  c870      -1
    B104(10)  OBJ       42.2
    B104(10)  c81       -1.9200000000000003e+01
    B104(10)  c1575     -20
    B104(10)  c133      -1
    B104(10)  c550      1
    B104(10)  c213      1
    B104(10)  c1109     1
    B104(10)  c154      -1
    B104(10)  c1424     -1
    B104(10)  c313      -1
    B104(10)  c1253     -1
    B105(12)  OBJ       40.6
    B105(12)  c736      -47.6
    B105(12)  c72       -20
    B105(12)  c213      1
    B105(12)  c1109     1
    B105(12)  c154      -1
    B105(12)  c452      -1
    B105(12)  c1503     1
    B105(12)  c382      3.3333333333333337e-01
    B105(12)  c685      3.3333333333333331e-01
    B105(12)  c275      -1
    B105(12)  c695      -1
    B105(12)  c1433     -1
    B106(10)  OBJ       39
    B106(10)  c1543     10
    B106(10)  c776      -20
    B106(10)  c631      -1
    B106(10)  c357      1
    B106(10)  c213      1
    B106(10)  c1109     1
    B106(10)  c154      -1
    B106(10)  c1299     -1
    B106(10)  c122      -1
    B106(10)  c294      -1
    B107(10)  OBJ       44.2
    B107(10)  c1550     1.0799999999999997e+01
    B107(10)  c451      -20
    B107(10)  c1677     -1
    B107(10)  c1634     1
    B107(10)  c213      1
    B107(10)  c1109     1
    B107(10)  c154      -1
    B107(10)  c112      -1
    B107(10)  c1129     -1
    B107(10)  c457      -1
    B108(6)   OBJ       33.5
    B108(6)   c213      1
    B108(6)   c1109     1
    B108(6)   c154      -1
    B108(6)   c1502     -1
    B108(6)   c669      -1
    B108(6)   c1587     -1
    B109(10)  OBJ       43.4
    B109(10)  c675      -2.3999999999999986e+00
    B109(10)  c677      -20
    B109(10)  c1215     -1
    B109(10)  c751      1
    B109(10)  c211      1
    B109(10)  c568      -1
    B109(10)  c914      1
    B109(10)  c1144     -1
    B109(10)  c647      -1
    B109(10)  c137      -1
    B110(10)  OBJ       42.3
    B110(10)  c866      -37.3
    B110(10)  c1227     -20
    B110(10)  c683      -1
    B110(10)  c1646     1
    B110(10)  c211      1
    B110(10)  c568      -1
    B110(10)  c914      1
    B110(10)  c773      -1
    B110(10)  c50       -1
    B110(10)  c1409     -1
    B111(9)   OBJ       37
    B111(9)   c1174     -20
    B111(9)   c338      -1
    B111(9)   c88       1
    B111(9)   c211      1
    B111(9)   c568      -1
    B111(9)   c914      1
    B111(9)   c598      -1
    B111(9)   c1261     -1
    B111(9)   c534      -1
    B112(10)  OBJ       31.6
    B112(10)  c983      -40.6
    B112(10)  c1279     -20
    B112(10)  c1392     -1
    B112(10)  c344      1
    B112(10)  c211      1
    B112(10)  c568      -1
    B112(10)  c914      1
    B112(10)  c1218     -1
    B112(10)  c799      -1
    B112(10)  c783      -1
    B113(10)  OBJ       30.8
    B113(10)  c1034     -55.8
    B113(10)  c1696     -20
    B113(10)  c1324     -1
    B113(10)  c461      1
    B113(10)  c211      1
    B113(10)  c568      -1
    B113(10)  c914      1
    B113(10)  c1488     -1
    B113(10)  c554      -1
    B113(10)  c306      -1
    B114(10)  OBJ       35.6
    B114(10)  c1600     -48.6
    B114(10)  c656      -20
    B114(10)  c1561     -1
    B114(10)  c481      1
    B114(10)  c211      1
    B114(10)  c568      -1
    B114(10)  c914      1
    B114(10)  c1508     -1
    B114(10)  c817      -1
    B114(10)  c305      -1
    B115(10)  OBJ       10.1
    B115(10)  c100      -23.1
    B115(10)  c1209     -20
    B115(10)  c352      -1
    B115(10)  c1479     1
    B115(10)  c211      1
    B115(10)  c568      -1
    B115(10)  c914      1
    B115(10)  c1487     -1
    B115(10)  c934      -1
    B115(10)  c1605     -1
    B116(10)  OBJ       5.3
    B116(10)  c1405     9.7
    B116(10)  c1203     -20
    B116(10)  c1525     -1
    B116(10)  c1579     1
    B116(10)  c211      1
    B116(10)  c568      -1
    B116(10)  c914      1
    B116(10)  c497      -1
    B116(10)  c171      -1
    B116(10)  c876      -1
    B117(10)  OBJ       5
    B117(10)  c932      -50
    B117(10)  c729      -20
    B117(10)  c211      1
    B117(10)  c568      -1
    B117(10)  c1109     -1
    B117(10)  c154      1
    B117(10)  c914      1
    B117(10)  c179      -1
    B117(10)  c1139     -1
    B117(10)  c103      -1
    B118(10)  OBJ       10.4
    B118(10)  c1022     27.6
    B118(10)  c1572     -20
    B118(10)  c211      1
    B118(10)  c568      -1
    B118(10)  c1563     -1
    B118(10)  c242      1
    B118(10)  c914      1
    B118(10)  c1274     -1
    B118(10)  c988      -1
    B118(10)  c612      -1
    B119(10)  OBJ       7.8
    B119(10)  c548      -53.8
    B119(10)  c286      -20
    B119(10)  c211      1
    B119(10)  c568      -1
    B119(10)  c530      -1
    B119(10)  c44       1
    B119(10)  c914      1
    B119(10)  c1156     -1
    B119(10)  c40       -1
    B119(10)  c679      -1
    B120(10)  OBJ       9.4
    B120(10)  c501      -41.4
    B120(10)  c867      -20
    B120(10)  c211      1
    B120(10)  c568      -1
    B120(10)  c1329     -1
    B120(10)  c3        1
    B120(10)  c914      1
    B120(10)  c661      -1
    B120(10)  c716      -1
    B120(10)  c1354     -1
    B121(10)  OBJ       8
    B121(10)  c1245     37
    B121(10)  c1242     -20
    B121(10)  c211      1
    B121(10)  c568      -1
    B121(10)  c1104     -1
    B121(10)  c347      1
    B121(10)  c914      1
    B121(10)  c11       -1
    B121(10)  c1558     -1
    B121(10)  c222      -1
    B122(10)  OBJ       45.3
    B122(10)  c471      -2.7299999999999997e+01
    B122(10)  c1236     -20
    B122(10)  c211      1
    B122(10)  c568      -1
    B122(10)  c133      -1
    B122(10)  c550      1
    B122(10)  c914      1
    B122(10)  c980      -1
    B122(10)  c1694     -1
    B122(10)  c719      -1
    B123(12)  OBJ       43.8
    B123(12)  c948      -55.8
    B123(12)  c7        -20
    B123(12)  c211      1
    B123(12)  c568      -1
    B123(12)  c452      -1
    B123(12)  c1503     1
    B123(12)  c914      1
    B123(12)  c382      3.3333333333333337e-01
    B123(12)  c685      3.3333333333333331e-01
    B123(12)  c710      -1
    B123(12)  c614      -1
    B123(12)  c183      -1
    B124(10)  OBJ       42.4
    B124(10)  c1597     1.6000000000000014e+00
    B124(10)  c1430     -20
    B124(10)  c211      1
    B124(10)  c568      -1
    B124(10)  c631      -1
    B124(10)  c357      1
    B124(10)  c914      1
    B124(10)  c421      -1
    B124(10)  c726      -1
    B124(10)  c1684     -1
    B125(10)  OBJ       48.2
    B125(10)  c810      1.7999999999999972e+00
    B125(10)  c204      -20
    B125(10)  c211      1
    B125(10)  c568      -1
    B125(10)  c1677     -1
    B125(10)  c1634     1
    B125(10)  c914      1
    B125(10)  c1265     -1
    B125(10)  c919      -1
    B125(10)  c935      -1
    B126(6)   OBJ       32.3
    B126(6)   c211      1
    B126(6)   c568      -1
    B126(6)   c914      1
    B126(6)   c997      -1
    B126(6)   c841      -1
    B126(6)   c1553     -1
    B127(10)  OBJ       11.1
    B127(10)  c1455     -44.1
    B127(10)  c437      -20
    B127(10)  c1563     1
    B127(10)  c242      -1
    B127(10)  c1104     -1
    B127(10)  c347      1
    B127(10)  c918      1
    B127(10)  c611      -1
    B127(10)  c1538     -1
    B127(10)  c1511     -1
    B128(6)   OBJ       38
    B128(6)   c1563     1
    B128(6)   c242      -1
    B128(6)   c918      1
    B128(6)   c1273     -1
    B128(6)   c1170     -1
    B128(6)   c742      -1
    B129(10)  OBJ       44.7
    B129(10)  c688      2.5299999999999997e+01
    B129(10)  c1191     -20
    B129(10)  c1215     -1
    B129(10)  c751      1
    B129(10)  c120      1
    B129(10)  c464      1
    B129(10)  c1659     -1
    B129(10)  c737      -1
    B129(10)  c53       -1
    B129(10)  c172      -1
    B130(10)  OBJ       34.4
    B130(10)  c1533     -59.4
    B130(10)  c424      -20
    B130(10)  c1081     -1
    B130(10)  c1308     1
    B130(10)  c120      1
    B130(10)  c464      1
    B130(10)  c1659     -1
    B130(10)  c1065     -1
    B130(10)  c4        -1
    B130(10)  c619      -1
    B131(10)  OBJ       43.4
    B131(10)  c859      -9.3999999999999986e+00
    B131(10)  c1232     -20
    B131(10)  c683      -1
    B131(10)  c1646     1
    B131(10)  c120      1
    B131(10)  c464      1
    B131(10)  c1659     -1
    B131(10)  c791      -1
    B131(10)  c1030     -1
    B131(10)  c418      -1
    B132(10)  OBJ       38
    B132(10)  c664      28
    B132(10)  c1458     -20
    B132(10)  c338      -1
    B132(10)  c88       1
    B132(10)  c120      1
    B132(10)  c464      1
    B132(10)  c1659     -1
    B132(10)  c1551     -1
    B132(10)  c414      -1
    B132(10)  c136      -1
    B133(10)  OBJ       32.6
    B133(10)  c1108     -1.2600000000000001e+01
    B133(10)  c920      -20
    B133(10)  c1392     -1
    B133(10)  c344      1
    B133(10)  c120      1
    B133(10)  c464      1
    B133(10)  c1659     -1
    B133(10)  c552      -1
    B133(10)  c1596     -1
    B133(10)  c450      -1
    B134(10)  OBJ       31.6
    B134(10)  c1660     -27.6
    B134(10)  c173      -20
    B134(10)  c1324     -1
    B134(10)  c461      1
    B134(10)  c120      1
    B134(10)  c464      1
    B134(10)  c1659     -1
    B134(10)  c1700     -1
    B134(10)  c1277     -1
    B134(10)  c225      -1
    B135(10)  OBJ       36.4
    B135(10)  c888      -20.4
    B135(10)  c1197     -20
    B135(10)  c1561     -1
    B135(10)  c481      1
    B135(10)  c120      1
    B135(10)  c464      1
    B135(10)  c1659     -1
    B135(10)  c1040     -1
    B135(10)  c638      -1
    B135(10)  c416      -1
    B136(10)  OBJ       11.1
    B136(10)  c706      4.8999999999999986e+00
    B136(10)  c215      -20
    B136(10)  c352      -1
    B136(10)  c1479     1
    B136(10)  c120      1
    B136(10)  c464      1
    B136(10)  c1659     -1
    B136(10)  c771      -1
    B136(10)  c1110     -1
    B136(10)  c511      -1
    B137(10)  OBJ       7
    B137(10)  c331      37
    B137(10)  c274      -20
    B137(10)  c1525     -1
    B137(10)  c1579     1
    B137(10)  c120      1
    B137(10)  c464      1
    B137(10)  c1659     -1
    B137(10)  c485      -1
    B137(10)  c718      -1
    B137(10)  c42       -1
    B138(10)  OBJ       5.8
    B138(10)  c1627     -21.8
    B138(10)  c1278     -20
    B138(10)  c1109     -1
    B138(10)  c154      1
    B138(10)  c120      1
    B138(10)  c464      1
    B138(10)  c1659     -1
    B138(10)  c24       -1
    B138(10)  c1590     -1
    B138(10)  c316      -1
    B139(10)  OBJ       3
    B139(10)  c449      -14
    B139(10)  c1271     -20
    B139(10)  c211      -1
    B139(10)  c568      1
    B139(10)  c120      1
    B139(10)  c464      1
    B139(10)  c1659     -1
    B139(10)  c1267     -1
    B139(10)  c221      -1
    B139(10)  c1523     -1
    B140(10)  OBJ       10
    B140(10)  c186      57
    B140(10)  c1282     -20
    B140(10)  c1563     -1
    B140(10)  c242      1
    B140(10)  c120      1
    B140(10)  c464      1
    B140(10)  c1659     -1
    B140(10)  c1045     -1
    B140(10)  c1033     -1
    B140(10)  c317      -1
    B141(10)  OBJ       5.8
    B141(10)  c1549     -22.8
    B141(10)  c1124     -20
    B141(10)  c530      -1
    B141(10)  c44       1
    B141(10)  c120      1
    B141(10)  c464      1
    B141(10)  c1659     -1
    B141(10)  c1032     -1
    B141(10)  c1000     -1
    B141(10)  c1412     -1
    B142(10)  OBJ       7
    B142(10)  c161      -10
    B142(10)  c439      -20
    B142(10)  c1329     -1
    B142(10)  c3        1
    B142(10)  c120      1
    B142(10)  c464      1
    B142(10)  c1659     -1
    B142(10)  c1167     -1
    B142(10)  c150      -1
    B142(10)  c762      -1
    B143(10)  OBJ       5
    B143(10)  c839      69
    B143(10)  c304      -20
    B143(10)  c1104     -1
    B143(10)  c347      1
    B143(10)  c120      1
    B143(10)  c464      1
    B143(10)  c1659     -1
    B143(10)  c1272     -1
    B143(10)  c1612     -1
    B143(10)  c523      -1
    B144(12)  OBJ       55.8
    B144(12)  c1606     -43.8
    B144(12)  c1211     -20
    B144(12)  c120      1
    B144(12)  c464      1
    B144(12)  c1659     -1
    B144(12)  c1031     -1
    B144(12)  c1470     1
    B144(12)  c382      3.3333333333333331e-01
    B144(12)  c685      3.3333333333333326e-01
    B144(12)  c831      -1
    B144(12)  c1276     -1
    B144(12)  c746      -1
    B145(12)  OBJ       50.9
    B145(12)  c360      -53.9
    B145(12)  c1147     -20
    B145(12)  c120      1
    B145(12)  c464      1
    B145(12)  c1659     -1
    B145(12)  c1637     -1
    B145(12)  c495      1
    B145(12)  c382      3.3333333333333326e-01
    B145(12)  c685      3.3333333333333337e-01
    B145(12)  c1683     -1
    B145(12)  c1328     -1
    B145(12)  c268      -1
    B146(10)  OBJ       47.6
    B146(10)  c858      -6.0000000000000142e-01
    B146(10)  c1259     -20
    B146(10)  c133      -1
    B146(10)  c550      1
    B146(10)  c120      1
    B146(10)  c464      1
    B146(10)  c1659     -1
    B146(10)  c1204     -1
    B146(10)  c155      -1
    B146(10)  c516      -1
    B147(12)  OBJ       46
    B147(12)  c28       -29
    B147(12)  c279      -20
    B147(12)  c452      -1
    B147(12)  c1503     1
    B147(12)  c120      1
    B147(12)  c464      1
    B147(12)  c1659     -1
    B147(12)  c382      3.3333333333333337e-01
    B147(12)  c685      3.3333333333333331e-01
    B147(12)  c971      -1
    B147(12)  c1316     -1
    B147(12)  c739      -1
    B148(10)  OBJ       44.5
    B148(10)  c216      28.5
    B148(10)  c1692     -20
    B148(10)  c631      -1
    B148(10)  c357      1
    B148(10)  c120      1
    B148(10)  c464      1
    B148(10)  c1659     -1
    B148(10)  c1453     -1
    B148(10)  c629      -1
    B148(10)  c18       -1
    B149(10)  OBJ       50
    B149(10)  c309      29
    B149(10)  c1021     -20
    B149(10)  c1677     -1
    B149(10)  c1634     1
    B149(10)  c120      1
    B149(10)  c464      1
    B149(10)  c1659     -1
    B149(10)  c1643     -1
    B149(10)  c1049     -1
    B149(10)  c1672     -1
    B150(6)   OBJ       35.3
    B150(6)   c120      1
    B150(6)   c464      1
    B150(6)   c1659     -1
    B150(6)   c1421     -1
    B150(6)   c303      -1
    B150(6)   c263      -1
    B151(10)  OBJ       50.5
    B151(10)  c764      -3.5
    B151(10)  c483      -20
    B151(10)  c1215     -1
    B151(10)  c751      1
    B151(10)  c530      1
    B151(10)  c44       -1
    B151(10)  c1179     1
    B151(10)  c1384     -1
    B151(10)  c1306     -1
    B151(10)  c356      -1
    B152(10)  OBJ       49.2
    B152(10)  c1235     -38.2
    B152(10)  c1340     -20
    B152(10)  c683      -1
    B152(10)  c1646     1
    B152(10)  c530      1
    B152(10)  c44       -1
    B152(10)  c1179     1
    B152(10)  c824      -1
    B152(10)  c1268     -1
    B152(10)  c1644     -1
    B153(10)  OBJ       43.8
    B153(10)  c1693     -7.9999999999999716e-01
    B153(10)  c1500     -20
    B153(10)  c338      -1
    B153(10)  c88       1
    B153(10)  c530      1
    B153(10)  c44       -1
    B153(10)  c1179     1
    B153(10)  c79       -1
    B153(10)  c1350     -1
    B153(10)  c517      -1
    B154(10)  OBJ       38.4
    B154(10)  c13       -41.4
    B154(10)  c507      -20
    B154(10)  c1392     -1
    B154(10)  c344      1
    B154(10)  c530      1
    B154(10)  c44       -1
    B154(10)  c1179     1
    B154(10)  c1536     -1
    B154(10)  c709      -1
    B154(10)  c1649     -1
    B155(10)  OBJ       37.3
    B155(10)  c1029     -56.3
    B155(10)  c231      -20
    B155(10)  c1324     -1
    B155(10)  c461      1
    B155(10)  c530      1
    B155(10)  c44       -1
    B155(10)  c1179     1
    B155(10)  c1088     -1
    B155(10)  c1435     -1
    B155(10)  c1440     -1
    B156(10)  OBJ       42
    B156(10)  c340      -49
    B156(10)  c1163     -20
    B156(10)  c1561     -1
    B156(10)  c481      1
    B156(10)  c530      1
    B156(10)  c44       -1
    B156(10)  c1179     1
    B156(10)  c420      -1
    B156(10)  c47       -1
    B156(10)  c1364     -1
    B157(10)  OBJ       9.4
    B157(10)  c241      -16.4
    B157(10)  c1476     -20
    B157(10)  c352      -1
    B157(10)  c1479     1
    B157(10)  c530      1
    B157(10)  c44       -1
    B157(10)  c1179     1
    B157(10)  c393      -1
    B157(10)  c704      -1
    B157(10)  c639      -1
    B158(10)  OBJ       8
    B158(10)  c158      13
    B158(10)  c1428     -20
    B158(10)  c1525     -1
    B158(10)  c1579     1
    B158(10)  c530      1
    B158(10)  c44       -1
    B158(10)  c1179     1
    B158(10)  c655      -1
    B158(10)  c1056     -1
    B158(10)  c455      -1
    B159(10)  OBJ       6
    B159(10)  c595      -45
    B159(10)  c302      -20
    B159(10)  c1109     -1
    B159(10)  c154      1
    B159(10)  c530      1
    B159(10)  c44       -1
    B159(10)  c1179     1
    B159(10)  c1490     -1
    B159(10)  c253      -1
    B159(10)  c326      -1
    B160(10)  OBJ       7.8
    B160(10)  c1002     -41.8
    B160(10)  c1020     -20
    B160(10)  c211      -1
    B160(10)  c568      1
    B160(10)  c530      1
    B160(10)  c44       -1
    B160(10)  c1179     1
    B160(10)  c1027     -1
    B160(10)  c473      -1
    B160(10)  c847      -1
    B161(10)  OBJ       5.8
    B161(10)  c603      38.2
    B161(10)  c259      -20
    B161(10)  c1563     -1
    B161(10)  c242      1
    B161(10)  c530      1
    B161(10)  c44       -1
    B161(10)  c1179     1
    B161(10)  c271      -1
    B161(10)  c1001     -1
    B161(10)  c1385     -1
    B162(10)  OBJ       2
    B162(10)  c588      -28
    B162(10)  c15       -20
    B162(10)  c1329     -1
    B162(10)  c3        1
    B162(10)  c530      1
    B162(10)  c44       -1
    B162(10)  c1179     1
    B162(10)  c1039     -1
    B162(10)  c931      -1
    B162(10)  c191      -1
    B163(10)  OBJ       5.3
    B163(10)  c1491     45.7
    B163(10)  c843      -20
    B163(10)  c1104     -1
    B163(10)  c347      1
    B163(10)  c530      1
    B163(10)  c44       -1
    B163(10)  c1179     1
    B163(10)  c89       -1
    B163(10)  c182      -1
    B163(10)  c156      -1
    B164(10)  OBJ       47.1
    B164(10)  c527      -23.1
    B164(10)  c1493     -20
    B164(10)  c133      -1
    B164(10)  c550      1
    B164(10)  c530      1
    B164(10)  c44       -1
    B164(10)  c1179     1
    B164(10)  c272      -1
    B164(10)  c790      -1
    B164(10)  c195      -1
    B165(12)  OBJ       45.4
    B165(12)  c33       -51.4
    B165(12)  c1394     -20
    B165(12)  c530      1
    B165(12)  c44       -1
    B165(12)  c452      -1
    B165(12)  c1503     1
    B165(12)  c1179     1
    B165(12)  c382      3.3333333333333337e-01
    B165(12)  c685      3.3333333333333331e-01
    B165(12)  c1302     -1
    B165(12)  c904      -1
    B165(12)  c1080     -1
    B166(10)  OBJ       43.8
    B166(10)  c260      6.2000000000000028e+00
    B166(10)  c941      -20
    B166(10)  c631      -1
    B166(10)  c357      1
    B166(10)  c530      1
    B166(10)  c44       -1
    B166(10)  c1179     1
    B166(10)  c756      -1
    B166(10)  c861      -1
    B166(10)  c851      -1
    B167(10)  OBJ       48.1
    B167(10)  c432      7.8999999999999986e+00
    B167(10)  c845      -20
    B167(10)  c1677     -1
    B167(10)  c1634     1
    B167(10)  c530      1
    B167(10)  c44       -1
    B167(10)  c1179     1
    B167(10)  c1338     -1
    B167(10)  c585      -1
    B167(10)  c68       -1
    B168(6)   OBJ       39.2
    B168(6)   c530      1
    B168(6)   c44       -1
    B168(6)   c1179     1
    B168(6)   c51       -1
    B168(6)   c1516     -1
    B168(6)   c21       -1
    B169(10)  OBJ       51.4
    B169(10)  c723      -18.4
    B169(10)  c993      -20
    B169(10)  c1215     -1
    B169(10)  c751      1
    B169(10)  c1329     1
    B169(10)  c3        -1
    B169(10)  c1128     1
    B169(10)  c536      -1
    B169(10)  c556      -1
    B169(10)  c1114     -1
    B170(10)  OBJ       50
    B170(10)  c251      -53
    B170(10)  c149      -20
    B170(10)  c683      -1
    B170(10)  c1646     1
    B170(10)  c1329     1
    B170(10)  c3        -1
    B170(10)  c1128     1
    B170(10)  c297      -1
    B170(10)  c1520     -1
    B170(10)  c480      -1
    B171(10)  OBJ       44.7
    B171(10)  c887      -1.5700000000000003e+01
    B171(10)  c1199     -20
    B171(10)  c338      -1
    B171(10)  c88       1
    B171(10)  c1329     1
    B171(10)  c3        -1
    B171(10)  c1128     1
    B171(10)  c1051     -1
    B171(10)  c1064     -1
    B171(10)  c118      -1
    B172(10)  OBJ       39.3
    B172(10)  c848      -56.3
    B172(10)  c508      -20
    B172(10)  c1392     -1
    B172(10)  c344      1
    B172(10)  c1329     1
    B172(10)  c3        -1
    B172(10)  c1128     1
    B172(10)  c1247     -1
    B172(10)  c860      -1
    B172(10)  c1519     -1
    B173(10)  OBJ       11.1
    B173(10)  c827      -32.1
    B173(10)  c1454     -20
    B173(10)  c352      -1
    B173(10)  c1479     1
    B173(10)  c1329     1
    B173(10)  c3        -1
    B173(10)  c1128     1
    B173(10)  c180      -1
    B173(10)  c748      -1
    B173(10)  c476      -1
    B174(10)  OBJ       10
    B174(10)  c354      -3
    B174(10)  c1365     -20
    B174(10)  c1525     -1
    B174(10)  c1579     1
    B174(10)  c1329     1
    B174(10)  c3        -1
    B174(10)  c1128     1
    B174(10)  c910      -1
    B174(10)  c1004     -1
    B174(10)  c769      -1
    B175(10)  OBJ       9.4
    B175(10)  c1601     -57.4
    B175(10)  c891      -20
    B175(10)  c211      -1
    B175(10)  c568      1
    B175(10)  c1329     1
    B175(10)  c3        -1
    B175(10)  c1128     1
    B175(10)  c727      -1
    B175(10)  c781      -1
    B175(10)  c520      -1
    B176(10)  OBJ       7
    B176(10)  c643      23
    B176(10)  c1546     -20
    B176(10)  c1563     -1
    B176(10)  c242      1
    B176(10)  c1329     1
    B176(10)  c3        -1
    B176(10)  c1128     1
    B176(10)  c1295     -1
    B176(10)  c321      -1
    B176(10)  c467      -1
    B177(10)  OBJ       2
    B177(10)  c1360     -56
    B177(10)  c1264     -20
    B177(10)  c1329     1
    B177(10)  c3        -1
    B177(10)  c530      -1
    B177(10)  c44       1
    B177(10)  c1128     1
    B177(10)  c413      -1
    B177(10)  c763      -1
    B177(10)  c140      -1
    B178(10)  OBJ       5
    B178(10)  c1571     32
    B178(10)  c328      -20
    B178(10)  c1329     1
    B178(10)  c3        -1
    B178(10)  c1104     -1
    B178(10)  c347      1
    B178(10)  c1128     1
    B178(10)  c1044     -1
    B178(10)  c615      -1
    B178(10)  c863      -1
    B179(10)  OBJ       48.8
    B179(10)  c1342     -38.8
    B179(10)  c609      -20
    B179(10)  c1329     1
    B179(10)  c3        -1
    B179(10)  c133      -1
    B179(10)  c550      1
    B179(10)  c1128     1
    B179(10)  c94       -1
    B179(10)  c658      -1
    B179(10)  c425      -1
    B180(10)  OBJ       45.4
    B180(10)  c430      -9.3999999999999986e+00
    B180(10)  c774      -20
    B180(10)  c1329     1
    B180(10)  c3        -1
    B180(10)  c631      -1
    B180(10)  c357      1
    B180(10)  c1128     1
    B180(10)  c228      -1
    B180(10)  c381      -1
    B180(10)  c238      -1
    B181(10)  OBJ       49.4
    B181(10)  c1345     -7.3999999999999986e+00
    B181(10)  c1095     -20
    B181(10)  c1329     1
    B181(10)  c3        -1
    B181(10)  c1677     -1
    B181(10)  c1634     1
    B181(10)  c1128     1
    B181(10)  c547      -1
    B181(10)  c1658     -1
    B181(10)  c333      -1
    B182(6)   OBJ       41.2
    B182(6)   c1329     1
    B182(6)   c3        -1
    B182(6)   c1128     1
    B182(6)   c599      -1
    B182(6)   c1396     -1
    B182(6)   c1084     -1
    B183(10)  OBJ       11.1
    B183(10)  c1335     -58.1
    B183(10)  c207      -20
    B183(10)  c1563     -1
    B183(10)  c242      1
    B183(10)  c1104     1
    B183(10)  c347      -1
    B183(10)  c857      1
    B183(10)  c197      -1
    B183(10)  c808      -1
    B183(10)  c151      -1
    B184(6)   OBJ       40.3
    B184(6)   c1104     1
    B184(6)   c347      -1
    B184(6)   c857      1
    B184(6)   c744      -1
    B184(6)   c412      -1
    B184(6)   c707      -1
    B185(10)  OBJ       48.7
    B185(10)  c113      -56.7
    B185(10)  c628      -20
    B185(10)  c1525     -1
    B185(10)  c1579     1
    B185(10)  c1031     1
    B185(10)  c1470     -1
    B185(10)  c1106     1
    B185(10)  c1599     -1
    B185(10)  c800      -1
    B185(10)  c1053     -1
    B186(10)  OBJ       49.2
    B186(10)  c901      -34.2
    B186(10)  c697      -20
    B186(10)  c1563     -1
    B186(10)  c242      1
    B186(10)  c1031     1
    B186(10)  c1470     -1
    B186(10)  c1106     1
    B186(10)  c819      -1
    B186(10)  c1151     -1
    B186(10)  c385      -1
    B187(10)  OBJ       59.4
    B187(10)  c596      -3.7400000000000006e+01
    B187(10)  c1184     -20
    B187(10)  c1104     -1
    B187(10)  c347      1
    B187(10)  c1031     1
    B187(10)  c1470     -1
    B187(10)  c1106     1
    B187(10)  c1555     -1
    B187(10)  c1699     -1
    B187(10)  c754      -1
    B188(10)  OBJ       10.1
    B188(10)  c1012     -1.5100000000000001e+01
    B188(10)  c1343     -20
    B188(10)  c133      -1
    B188(10)  c550      1
    B188(10)  c1031     1
    B188(10)  c1470     -1
    B188(10)  c1106     1
    B188(10)  c1226     -1
    B188(10)  c622      -1
    B188(10)  c190      -1
    B189(10)  OBJ       10.7
    B189(10)  c1514     -45.7
    B189(10)  c1459     -20
    B189(10)  c452      -1
    B189(10)  c1503     1
    B189(10)  c1031     1
    B189(10)  c1470     -1
    B189(10)  c1106     1
    B189(10)  c1674     -1
    B189(10)  c902      -1
    B189(10)  c795      -1
    B190(10)  OBJ       11.6
    B190(10)  c462      9.3999999999999986e+00
    B190(10)  c1082     -20
    B190(10)  c631      -1
    B190(10)  c357      1
    B190(10)  c1031     1
    B190(10)  c1470     -1
    B190(10)  c1106     1
    B190(10)  c1451     -1
    B190(10)  c913      -1
    B190(10)  c981      -1
    B191(10)  OBJ       9
    B191(10)  c584      18
    B191(10)  c91       -20
    B191(10)  c1677     -1
    B191(10)  c1634     1
    B191(10)  c1031     1
    B191(10)  c1470     -1
    B191(10)  c1106     1
    B191(10)  c14       -1
    B191(10)  c610      -1
    B191(10)  c650      -1
    B192(6)   OBJ       45.1
    B192(6)   c1031     1
    B192(6)   c1470     -1
    B192(6)   c1106     1
    B192(6)   c325      -1
    B192(6)   c1086     -1
    B192(6)   c602      -1
    B193(10)  OBJ       76.9
    B193(10)  c1190     -4.3900000000000006e+01
    B193(10)  c838      -20
    B193(10)  c1215     -1
    B193(10)  c751      1
    B193(10)  c1637     1
    B193(10)  c495      -1
    B193(10)  c960      1
    B193(10)  c1243     -1
    B193(10)  c671      -1
    B193(10)  c212      -1
    B194(10)  OBJ       73.3
    B194(10)  c689      -44.3
    B194(10)  c1539     -20
    B194(10)  c338      -1
    B194(10)  c88       1
    B194(10)  c1637     1
    B194(10)  c495      -1
    B194(10)  c960      1
    B194(10)  c1676     -1
    B194(10)  c1654     -1
    B194(10)  c524      -1
    B195(10)  OBJ       43.8
    B195(10)  c284      -36.8
    B195(10)  c244      -20
    B195(10)  c1525     -1
    B195(10)  c1579     1
    B195(10)  c1637     1
    B195(10)  c495      -1
    B195(10)  c960      1
    B195(10)  c897      -1
    B195(10)  c943      -1
    B195(10)  c526      -1
    B196(10)  OBJ       44.6
    B196(10)  c1466     -1.4600000000000001e+01
    B196(10)  c411      -20
    B196(10)  c1563     -1
    B196(10)  c242      1
    B196(10)  c1637     1
    B196(10)  c495      -1
    B196(10)  c960      1
    B196(10)  c390      -1
    B196(10)  c1703     -1
    B196(10)  c714      -1
    B197(10)  OBJ       54.6
    B197(10)  c1150     -1.7599999999999994e+01
    B197(10)  c498      -20
    B197(10)  c1104     -1
    B197(10)  c347      1
    B197(10)  c1637     1
    B197(10)  c495      -1
    B197(10)  c960      1
    B197(10)  c989      -1
    B197(10)  c349      -1
    B197(10)  c814      -1
    B198(10)  OBJ       5.3
    B198(10)  c105      -30.3
    B198(10)  c98       -20
    B198(10)  c1031     -1
    B198(10)  c1470     1
    B198(10)  c1637     1
    B198(10)  c495      -1
    B198(10)  c960      1
    B198(10)  c505      -1
    B198(10)  c1162     -1
    B198(10)  c1664     -1
    B199(10)  OBJ       5
    B199(10)  c431      5
    B199(10)  c177      -20
    B199(10)  c133      -1
    B199(10)  c550      1
    B199(10)  c1637     1
    B199(10)  c495      -1
    B199(10)  c960      1
    B199(10)  c543      -1
    B199(10)  c766      -1
    B199(10)  c1183     -1
    B200(10)  OBJ       5.3
    B200(10)  c1292     -50.3
    B200(10)  c1655     -20
    B200(10)  c1637     1
    B200(10)  c495      -1
    B200(10)  c960      1
    B200(10)  c308      -1
    B200(10)  c230      1
    B200(10)  c159      -1
    B200(10)  c1448     -1
    B200(10)  c1175     -1
    B201(10)  OBJ       5.3
    B201(10)  c633      -25.3
    B201(10)  c545      -20
    B201(10)  c452      -1
    B201(10)  c1503     1
    B201(10)  c1637     1
    B201(10)  c495      -1
    B201(10)  c960      1
    B201(10)  c1618     -1
    B201(10)  c665      -1
    B201(10)  c640      -1
    B202(10)  OBJ       6.4
    B202(10)  c1452     -53.4
    B202(10)  c1287     -20
    B202(10)  c1637     1
    B202(10)  c495      -1
    B202(10)  c960      1
    B202(10)  c690      -1
    B202(10)  c1388     1
    B202(10)  c403      -1
    B202(10)  c163      -1
    B202(10)  c663      -1
    B203(10)  OBJ       6.4
    B203(10)  c392      29.6
    B203(10)  c767      -20
    B203(10)  c631      -1
    B203(10)  c357      1
    B203(10)  c1637     1
    B203(10)  c495      -1
    B203(10)  c960      1
    B203(10)  c1304     -1
    B203(10)  c886      -1
    B203(10)  c649      -1
    B204(10)  OBJ       8.6
    B204(10)  c1066     33.4
    B204(10)  c181      -20
    B204(10)  c1677     -1
    B204(10)  c1634     1
    B204(10)  c1637     1
    B204(10)  c495      -1
    B204(10)  c960      1
    B204(10)  c1262     -1
    B204(10)  c379      -1
    B204(10)  c189      -1
    B205(6)   OBJ       40
    B205(6)   c1637     1
    B205(6)   c495      -1
    B205(6)   c960      1
    B205(6)   c1461     -1
    B205(6)   c807      -1
    B205(6)   c768      -1
    B206(10)  OBJ       4
    B206(10)  c93       -18
    B206(10)  c1138     -20
    B206(10)  c133      1
    B206(10)  c550      -1
    B206(10)  c631      -1
    B206(10)  c357      1
    B206(10)  c1285     1
    B206(10)  c1638     -1
    B206(10)  c8        -1
    B206(10)  c170      -1
    B207(10)  OBJ       12.2
    B207(10)  c1506     -20.2
    B207(10)  c1172     -20
    B207(10)  c133      1
    B207(10)  c550      -1
    B207(10)  c1677     -1
    B207(10)  c1634     1
    B207(10)  c1285     1
    B207(10)  c314      -1
    B207(10)  c1330     -1
    B207(10)  c1246     -1
    B208(6)   OBJ       35
    B208(6)   c133      1
    B208(6)   c550      -1
    B208(6)   c1285     1
    B208(6)   c1201     -1
    B208(6)   c460      -1
    B208(6)   c1656     -1
    B209(10)  OBJ       81.3
    B209(10)  c1685     -43.3
    B209(10)  c343      -20
    B209(10)  c1215     -1
    B209(10)  c751      1
    B209(10)  c308      1
    B209(10)  c230      -1
    B209(10)  c1186     1
    B209(10)  c801      -1
    B209(10)  c560      -1
    B209(10)  c681      -1
    B210(10)  OBJ       77.6
    B210(10)  c288      -4.3599999999999994e+01
    B210(10)  c825      -20
    B210(10)  c338      -1
    B210(10)  c88       1
    B210(10)  c308      1
    B210(10)  c230      -1
    B210(10)  c1186     1
    B210(10)  c83       -1
    B210(10)  c1359     -1
    B210(10)  c1010     -1
    B211(10)  OBJ       42.4
    B211(10)  c1389     -58.4
    B211(10)  c747      -20
    B211(10)  c352      -1
    B211(10)  c1479     1
    B211(10)  c308      1
    B211(10)  c230      -1
    B211(10)  c1186     1
    B211(10)  c1574     -1
    B211(10)  c541      -1
    B211(10)  c1205     -1
    B212(10)  OBJ       46
    B212(10)  c924      -34
    B212(10)  c1467     -20
    B212(10)  c1525     -1
    B212(10)  c1579     1
    B212(10)  c308      1
    B212(10)  c230      -1
    B212(10)  c1186     1
    B212(10)  c378      -1
    B212(10)  c342      -1
    B212(10)  c828      -1
    B213(10)  OBJ       46
    B213(10)  c1357     -11
    B213(10)  c779      -20
    B213(10)  c1563     -1
    B213(10)  c242      1
    B213(10)  c308      1
    B213(10)  c230      -1
    B213(10)  c1186     1
    B213(10)  c775      -1
    B213(10)  c991      -1
    B213(10)  c597      -1
    B214(10)  OBJ       56.5
    B214(10)  c1214     -14.5
    B214(10)  c376      -20
    B214(10)  c1104     -1
    B214(10)  c347      1
    B214(10)  c308      1
    B214(10)  c230      -1
    B214(10)  c1186     1
    B214(10)  c882      -1
    B214(10)  c925      -1
    B214(10)  c1565     -1
    B215(10)  OBJ       4
    B215(10)  c37       -24
    B215(10)  c1344     -20
    B215(10)  c1031     -1
    B215(10)  c1470     1
    B215(10)  c308      1
    B215(10)  c230      -1
    B215(10)  c1186     1
    B215(10)  c652      -1
    B215(10)  c30       -1
    B215(10)  c199      -1
    B216(10)  OBJ       5.3
    B216(10)  c1410     -40.3
    B216(10)  c1513     -20
    B216(10)  c1637     -1
    B216(10)  c495      1
    B216(10)  c308      1
    B216(10)  c230      -1
    B216(10)  c1186     1
    B216(10)  c1595     -1
    B216(10)  c803      -1
    B216(10)  c578      -1
    B217(10)  OBJ       10.1
    B217(10)  c1057     4.8999999999999986e+00
    B217(10)  c680      -20
    B217(10)  c133      -1
    B217(10)  c550      1
    B217(10)  c308      1
    B217(10)  c230      -1
    B217(10)  c1186     1
    B217(10)  c1275     -1
    B217(10)  c1317     -1
    B217(10)  c69       -1
    B218(10)  OBJ       10
    B218(10)  c406      -25
    B218(10)  c604      -20
    B218(10)  c452      -1
    B218(10)  c1503     1
    B218(10)  c308      1
    B218(10)  c230      -1
    B218(10)  c1186     1
    B218(10)  c893      -1
    B218(10)  c456      -1
    B218(10)  c318      -1
    B219(10)  OBJ       2
    B219(10)  c1534     -44
    B219(10)  c1376     -20
    B219(10)  c308      1
    B219(10)  c230      -1
    B219(10)  c690      -1
    B219(10)  c1388     1
    B219(10)  c1186     1
    B219(10)  c320      -1
    B219(10)  c1152     -1
    B219(10)  c896      -1
    B220(10)  OBJ       10.1
    B220(10)  c240      30.9
    B220(10)  c1087     -20
    B220(10)  c631      -1
    B220(10)  c357      1
    B220(10)  c308      1
    B220(10)  c230      -1
    B220(10)  c1186     1
    B220(10)  c27       -1
    B220(10)  c987      -1
    B220(10)  c55       -1
    B221(10)  OBJ       5
    B221(10)  c1439     42
    B221(10)  c1420     -20
    B221(10)  c1677     -1
    B221(10)  c1634     1
    B221(10)  c308      1
    B221(10)  c230      -1
    B221(10)  c1186     1
    B221(10)  c76       -1
    B221(10)  c1352     -1
    B221(10)  c1429     -1
    B222(6)   OBJ       45
    B222(6)   c308      1
    B222(6)   c230      -1
    B222(6)   c1186     1
    B222(6)   c805      -1
    B222(6)   c880      -1
    B222(6)   c555      -1
    B223(10)  OBJ       71.5
    B223(10)  c1112     -58.5
    B223(10)  c899      -20
    B223(10)  c1215     -1
    B223(10)  c751      1
    B223(10)  c452      1
    B223(10)  c1503     -1
    B223(10)  c62       1
    B223(10)  c1121     -1
    B223(10)  c399      -1
    B223(10)  c884      -1
    B224(10)  OBJ       68
    B224(10)  c1349     -59
    B224(10)  c232      -20
    B224(10)  c338      -1
    B224(10)  c88       1
    B224(10)  c452      1
    B224(10)  c1503     -1
    B224(10)  c62       1
    B224(10)  c132      -1
    B224(10)  c1224     -1
    B224(10)  c772      -1
    B225(10)  OBJ       39
    B225(10)  c740      -52
    B225(10)  c660      -20
    B225(10)  c1525     -1
    B225(10)  c1579     1
    B225(10)  c452      1
    B225(10)  c1503     -1
    B225(10)  c62       1
    B225(10)  c106      -1
    B225(10)  c616      -1
    B225(10)  c958      -1
    B226(10)  OBJ       40.3
    B226(10)  c642      -3.0299999999999997e+01
    B226(10)  c273      -20
    B226(10)  c1563     -1
    B226(10)  c242      1
    B226(10)  c452      1
    B226(10)  c1503     -1
    B226(10)  c62       1
    B226(10)  c1662     -1
    B226(10)  c976      -1
    B226(10)  c145      -1
    B227(10)  OBJ       50
    B227(10)  c1347     -33
    B227(10)  c223      -20
    B227(10)  c1104     -1
    B227(10)  c347      1
    B227(10)  c452      1
    B227(10)  c1503     -1
    B227(10)  c62       1
    B227(10)  c474      -1
    B227(10)  c283      -1
    B227(10)  c1537     -1
    B228(10)  OBJ       10.7
    B228(10)  c45       -55.7
    B228(10)  c358      -20
    B228(10)  c452      1
    B228(10)  c1503     -1
    B228(10)  c1031     -1
    B228(10)  c1470     1
    B228(10)  c62       1
    B228(10)  c434      -1
    B228(10)  c720      -1
    B228(10)  c894      -1
    B229(10)  OBJ       2
    B229(10)  c46       -12
    B229(10)  c1623     -20
    B229(10)  c133      -1
    B229(10)  c550      1
    B229(10)  c452      1
    B229(10)  c1503     -1
    B229(10)  c62       1
    B229(10)  c296      -1
    B229(10)  c856      -1
    B229(10)  c956      -1
    B230(10)  OBJ       2
    B230(10)  c833      14
    B230(10)  c804      -20
    B230(10)  c631      -1
    B230(10)  c357      1
    B230(10)  c452      1
    B230(10)  c1503     -1
    B230(10)  c62       1
    B230(10)  c262      -1
    B230(10)  c164      -1
    B230(10)  c883      -1
    B231(10)  OBJ       11.1
    B231(10)  c842      1.0899999999999999e+01
    B231(10)  c479      -20
    B231(10)  c1677     -1
    B231(10)  c1634     1
    B231(10)  c452      1
    B231(10)  c1503     -1
    B231(10)  c62       1
    B231(10)  c1116     -1
    B231(10)  c1584     -1
    B231(10)  c247      -1
    B232(6)   OBJ       35
    B232(6)   c452      1
    B232(6)   c1503     -1
    B232(6)   c62       1
    B232(6)   c1193     -1
    B232(6)   c890      -1
    B232(6)   c1399     -1
    B233(10)  OBJ       81
    B233(10)  c1689     -41
    B233(10)  c1432     -20
    B233(10)  c1215     -1
    B233(10)  c751      1
    B233(10)  c690      1
    B233(10)  c1388     -1
    B233(10)  c855      1
    B233(10)  c938      -1
    B233(10)  c589      -1
    B233(10)  c785      -1
    B234(10)  OBJ       77.1
    B234(10)  c821      -4.1099999999999994e+01
    B234(10)  c1542     -20
    B234(10)  c338      -1
    B234(10)  c88       1
    B234(10)  c690      1
    B234(10)  c1388     -1
    B234(10)  c855      1
    B234(10)  c70       -1
    B234(10)  c1182     -1
    B234(10)  c1225     -1
    B235(10)  OBJ       41
    B235(10)  c1142     -55
    B235(10)  c417      -20
    B235(10)  c352      -1
    B235(10)  c1479     1
    B235(10)  c690      1
    B235(10)  c1388     -1
    B235(10)  c855      1
    B235(10)  c1219     -1
    B235(10)  c1438     -1
    B235(10)  c1397     -1
    B236(10)  OBJ       44.8
    B236(10)  c874      -3.0799999999999997e+01
    B236(10)  c334      -20
    B236(10)  c1525     -1
    B236(10)  c1579     1
    B236(10)  c690      1
    B236(10)  c1388     -1
    B236(10)  c855      1
    B236(10)  c946      -1
    B236(10)  c1367     -1
    B236(10)  c1588     -1
    B237(10)  OBJ       44.5
    B237(10)  c871      -7.5
    B237(10)  c1283     -20
    B237(10)  c1563     -1
    B237(10)  c242      1
    B237(10)  c690      1
    B237(10)  c1388     -1
    B237(10)  c855      1
    B237(10)  c1322     -1
    B237(10)  c440      -1
    B237(10)  c889      -1
    B238(10)  OBJ       55.1
    B238(10)  c1559     -1.1099999999999994e+01
    B238(10)  c445      -20
    B238(10)  c1104     -1
    B238(10)  c347      1
    B238(10)  c690      1
    B238(10)  c1388     -1
    B238(10)  c855      1
    B238(10)  c1456     -1
    B238(10)  c1436     -1
    B238(10)  c667      -1
    B239(10)  OBJ       6
    B239(10)  c310      -24
    B239(10)  c577      -20
    B239(10)  c1031     -1
    B239(10)  c1470     1
    B239(10)  c690      1
    B239(10)  c1388     -1
    B239(10)  c855      1
    B239(10)  c1497     -1
    B239(10)  c579      -1
    B239(10)  c564      -1
    B240(10)  OBJ       6.4
    B240(10)  c627      -39.4
    B240(10)  c1540     -20
    B240(10)  c1637     -1
    B240(10)  c495      1
    B240(10)  c690      1
    B240(10)  c1388     -1
    B240(10)  c855      1
    B240(10)  c17       -1
    B240(10)  c1475     -1
    B240(10)  c1248     -1
    B241(10)  OBJ       10.7
    B241(10)  c359      6.3000000000000007e+00
    B241(10)  c1336     -20
    B241(10)  c133      -1
    B241(10)  c550      1
    B241(10)  c690      1
    B241(10)  c1388     -1
    B241(10)  c855      1
    B241(10)  c1146     -1
    B241(10)  c1102     -1
    B241(10)  c312      -1
    B242(10)  OBJ       2
    B242(10)  c35       -40
    B242(10)  c1698     -20
    B242(10)  c308      -1
    B242(10)  c230      1
    B242(10)  c690      1
    B242(10)  c1388     -1
    B242(10)  c855      1
    B242(10)  c1181     -1
    B242(10)  c1200     -1
    B242(10)  c982      -1
    B243(10)  OBJ       10.1
    B243(10)  c61       -23.1
    B243(10)  c673      -20
    B243(10)  c452      -1
    B243(10)  c1503     1
    B243(10)  c690      1
    B243(10)  c1388     -1
    B243(10)  c855      1
    B243(10)  c1611     -1
    B243(10)  c693      -1
    B243(10)  c684      -1
    B244(10)  OBJ       10
    B244(10)  c968      33
    B244(10)  c1441     -20
    B244(10)  c631      -1
    B244(10)  c357      1
    B244(10)  c690      1
    B244(10)  c1388     -1
    B244(10)  c855      1
    B244(10)  c951      -1
    B244(10)  c1257     -1
    B244(10)  c961      -1
    B245(10)  OBJ       3
    B245(10)  c369      46
    B245(10)  c986      -20
    B245(10)  c1677     -1
    B245(10)  c1634     1
    B245(10)  c690      1
    B245(10)  c1388     -1
    B245(10)  c855      1
    B245(10)  c1554     -1
    B245(10)  c54       -1
    B245(10)  c676      -1
    B246(6)   OBJ       45
    B246(6)   c690      1
    B246(6)   c1388     -1
    B246(6)   c855      1
    B246(6)   c363      -1
    B246(6)   c210      -1
    B246(6)   c1011     -1
    B247(10)  OBJ       10.4
    B247(10)  c341      -44.4
    B247(10)  c178      -20
    B247(10)  c631      1
    B247(10)  c357      -1
    B247(10)  c1677     -1
    B247(10)  c1634     1
    B247(10)  c1651     1
    B247(10)  c912      -1
    B247(10)  c295      -1
    B247(10)  c20       -1
    B248(6)   OBJ       35
    B248(6)   c631      1
    B248(6)   c357      -1
    B248(6)   c1651     1
    B248(6)   c1445     -1
    B248(6)   c1194     -1
    B248(6)   c1041     -1
    B249(10)  OBJ       10.4
    B249(10)  c1263     -56.4
    B249(10)  c428      -20
    B249(10)  c631      -1
    B249(10)  c357      1
    B249(10)  c1677     1
    B249(10)  c1634     -1
    B249(10)  c1535     1
    B249(10)  c433      -1
    B249(10)  c835      -1
    B249(10)  c138      -1
    B250(6)   OBJ       45.2
    B250(6)   c1677     1
    B250(6)   c1634     -1
    B250(6)   c1535     1
    B250(6)   c287      -1
    B250(6)   c1630     -1
    B250(6)   c713      -1
    B251(6)   OBJ       38
    B251(6)   c1215     -1
    B251(6)   c751      1
    B251(6)   c108      1
    B251(6)   c362      -1
    B251(6)   c921      -1
    B251(6)   c1425     -1
    B252(6)   OBJ       30.8
    B252(6)   c1081     -1
    B252(6)   c1308     1
    B252(6)   c108      1
    B252(6)   c549      -1
    B252(6)   c760      -1
    B252(6)   c1381     -1
    B253(6)   OBJ       39.3
    B253(6)   c683      -1
    B253(6)   c1646     1
    B253(6)   c108      1
    B253(6)   c1473     -1
    B253(6)   c1223     -1
    B253(6)   c78       -1
    B254(6)   OBJ       36
    B254(6)   c338      -1
    B254(6)   c88       1
    B254(6)   c108      1
    B254(6)   c1620     -1
    B254(6)   c1077     -1
    B254(6)   c1014     -1
    B255(6)   OBJ       40.3
    B255(6)   c1521     -1
    B255(6)   c954      1
    B255(6)   c108      1
    B255(6)   c1366     -1
    B255(6)   c1608     -1
    B255(6)   c1391     -1
    B256(6)   OBJ       33.3
    B256(6)   c1392     -1
    B256(6)   c344      1
    B256(6)   c108      1
    B256(6)   c811      -1
    B256(6)   c1234     -1
    B256(6)   c1688     -1
    B257(6)   OBJ       35.3
    B257(6)   c1324     -1
    B257(6)   c461      1
    B257(6)   c108      1
    B257(6)   c446      -1
    B257(6)   c350      -1
    B257(6)   c651      -1
    B258(6)   OBJ       39
    B258(6)   c1561     -1
    B258(6)   c481      1
    B258(6)   c108      1
    B258(6)   c565      -1
    B258(6)   c1450     -1
    B258(6)   c1238     -1
    B259(6)   OBJ       33.5
    B259(6)   c352      -1
    B259(6)   c1479     1
    B259(6)   c108      1
    B259(6)   c826      -1
    B259(6)   c1217     -1
    B259(6)   c1526     -1
    B260(6)   OBJ       31.6
    B260(6)   c1525     -1
    B260(6)   c1579     1
    B260(6)   c108      1
    B260(6)   c1168     -1
    B260(6)   c1408     -1
    B260(6)   c174      -1
    B261(6)   OBJ       33.5
    B261(6)   c1109     -1
    B261(6)   c154      1
    B261(6)   c108      1
    B261(6)   c234      -1
    B261(6)   c32       -1
    B261(6)   c97       -1
    B262(6)   OBJ       32.3
    B262(6)   c211      -1
    B262(6)   c568      1
    B262(6)   c108      1
    B262(6)   c1375     -1
    B262(6)   c592      -1
    B262(6)   c1472     -1
    B263(6)   OBJ       38
    B263(6)   c1563     -1
    B263(6)   c242      1
    B263(6)   c108      1
    B263(6)   c1        -1
    B263(6)   c879      -1
    B263(6)   c220      -1
    B264(6)   OBJ       35.3
    B264(6)   c464      -1
    B264(6)   c1659     1
    B264(6)   c108      1
    B264(6)   c1239     -1
    B264(6)   c353      -1
    B264(6)   c289      -1
    B265(6)   OBJ       39.2
    B265(6)   c530      -1
    B265(6)   c44       1
    B265(6)   c108      1
    B265(6)   c1130     -1
    B265(6)   c1301     -1
    B265(6)   c1374     -1
    B266(6)   OBJ       41.2
    B266(6)   c1329     -1
    B266(6)   c3        1
    B266(6)   c108      1
    B266(6)   c75       -1
    B266(6)   c184      -1
    B266(6)   c699      -1
    B267(6)   OBJ       40.3
    B267(6)   c1104     -1
    B267(6)   c347      1
    B267(6)   c108      1
    B267(6)   c214      -1
    B267(6)   c877      -1
    B267(6)   c895      -1
    B268(8)   OBJ       45.1
    B268(8)   c1031     -1
    B268(8)   c1470     1
    B268(8)   c108      1
    B268(8)   c382      3.3333333333333331e-01
    B268(8)   c685      3.3333333333333326e-01
    B268(8)   c398      -1
    B268(8)   c1564     -1
    B268(8)   c752      -1
    B269(8)   OBJ       40
    B269(8)   c1637     -1
    B269(8)   c495      1
    B269(8)   c108      1
    B269(8)   c382      3.3333333333333326e-01
    B269(8)   c685      3.3333333333333337e-01
    B269(8)   c1025     -1
    B269(8)   c927      -1
    B269(8)   c1510     -1
    B270(6)   OBJ       35
    B270(6)   c133      -1
    B270(6)   c550      1
    B270(6)   c108      1
    B270(6)   c1118     -1
    B270(6)   c491      -1
    B270(6)   c984      -1
    B271(8)   OBJ       45
    B271(8)   c308      -1
    B271(8)   c230      1
    B271(8)   c108      1
    B271(8)   c382      3.3333333333333326e-01
    B271(8)   c685      3.3333333333333326e-01
    B271(8)   c64       -1
    B271(8)   c1136     -1
    B271(8)   c898      -1
    B272(8)   OBJ       35
    B272(8)   c452      -1
    B272(8)   c1503     1
    B272(8)   c108      1
    B272(8)   c382      3.3333333333333337e-01
    B272(8)   c685      3.3333333333333331e-01
    B272(8)   c209      -1
    B272(8)   c758      -1
    B272(8)   c940      -1
    B273(7)   OBJ       45
    B273(7)   c690      -1
    B273(7)   c1388     1
    B273(7)   c108      1
    B273(7)   c685      3.3333333333333326e-01
    B273(7)   c533      -1
    B273(7)   c1668     -1
    B273(7)   c477      -1
    B274(6)   OBJ       35
    B274(6)   c631      -1
    B274(6)   c357      1
    B274(6)   c108      1
    B274(6)   c1625     -1
    B274(6)   c1063     -1
    B274(6)   c1480     -1
    B275(6)   OBJ       45.2
    B275(6)   c1677     -1
    B275(6)   c1634     1
    B275(6)   c108      1
    B275(6)   c276      -1
    B275(6)   c1586     -1
    B275(6)   c258      -1
    MARKER    'MARKER'                 'INTEND'
    C276(18)  c873      1
    C276(18)  c1615     -1
    C276(18)  c1383     -1
    C276(18)  c1311     -1
    C276(18)  c126      -1
    C276(18)  c786      -1
    C276(18)  c1125     -1
    C276(18)  c881      -1
    C276(18)  c185      -1
    C276(18)  c208      -1
    C276(18)  c677      -1
    C276(18)  c1191     -1
    C276(18)  c483      -1
    C276(18)  c993      -1
    C276(18)  c838      -1
    C276(18)  c343      -1
    C276(18)  c899      -1
    C276(18)  c1432     -1
    C277(18)  c820      1
    C277(18)  c396      -1
    C277(18)  c1489     -1
    C277(18)  c423      -1
    C277(18)  c459      -1
    C277(18)  c900      -1
    C277(18)  c1294     -1
    C277(18)  c496      -1
    C277(18)  c243      -1
    C277(18)  c1567     -1
    C277(18)  c675      -1
    C277(18)  c688      -1
    C277(18)  c764      -1
    C277(18)  c723      -1
    C277(18)  c1190     -1
    C277(18)  c1685     -1
    C277(18)  c1112     -1
    C277(18)  c1689     -1
    C278(18)  c1615     1
    C278(18)  c1161     1
    C278(18)  c653      1
    C278(18)  c743      1
    C278(18)  c1576     1
    C278(18)  c698      1
    C278(18)  c95       1
    C278(18)  c1015     1
    C278(18)  c1419     1
    C278(18)  c348      1
    C278(18)  c1619     1
    C278(18)  c1610     1
    C278(18)  c885      1
    C278(18)  c1074     1
    C278(18)  c1132     1
    C278(18)  c148      1
    C278(18)  c298      -1
    C278(18)  c424      -1
    C279(18)  c396      1
    C279(18)  c1058     1
    C279(18)  c1675     1
    C279(18)  c1026     1
    C279(18)  c721      1
    C279(18)  c1697     1
    C279(18)  c291      1
    C279(18)  c67       1
    C279(18)  c812      1
    C279(18)  c792      1
    C279(18)  c1589     1
    C279(18)  c1446     1
    C279(18)  c1198     1
    C279(18)  c1702     1
    C279(18)  c77       1
    C279(18)  c712      1
    C279(18)  c846      -1
    C279(18)  c1533     -1
    C280(14)  c1161     -1
    C280(14)  c1383     1
    C280(14)  c372      1
    C280(14)  c1046     1
    C280(14)  c1617     1
    C280(14)  c635      -1
    C280(14)  c29       -1
    C280(14)  c404      -1
    C280(14)  c593      -1
    C280(14)  c351      -1
    C280(14)  c1227     -1
    C280(14)  c1232     -1
    C280(14)  c1340     -1
    C280(14)  c149      -1
    C281(14)  c1058     -1
    C281(14)  c1489     1
    C281(14)  c110      1
    C281(14)  c1237     1
    C281(14)  c1604     1
    C281(14)  c1166     -1
    C281(14)  c1047     -1
    C281(14)  c1341     -1
    C281(14)  c872      -1
    C281(14)  c765      -1
    C281(14)  c866      -1
    C281(14)  c859      -1
    C281(14)  c1235     -1
    C281(14)  c251      -1
    C282(19)  c873      -1
    C282(19)  c653      -1
    C282(19)  c372      -1
    C282(19)  c1311     1
    C282(19)  c1176     -1
    C282(19)  c789      -1
    C282(19)  c1661     -1
    C282(19)  c572      -1
    C282(19)  c31       -1
    C282(19)  c1067     -1
    C282(19)  c233      -1
    C282(19)  c1174     -1
    C282(19)  c1458     -1
    C282(19)  c1500     -1
    C282(19)  c1199     -1
    C282(19)  c1539     -1
    C282(19)  c825      -1
    C282(19)  c232      -1
    C282(19)  c1542     -1
    C283(19)  c820      -1
    C283(19)  c1675     -1
    C283(19)  c110      -1
    C283(19)  c423      1
    C283(19)  c278      -1
    C283(19)  c1133     -1
    C283(19)  c2        -1
    C283(19)  c702      -1
    C283(19)  c82       -1
    C283(19)  c125      -1
    C283(19)  c973      -1
    C283(19)  c1054     -1
    C283(19)  c664      -1
    C283(19)  c1693     -1
    C283(19)  c887      -1
    C283(19)  c689      -1
    C283(19)  c288      -1
    C283(19)  c1349     -1
    C283(19)  c821      -1
    C284(17)  c743      -1
    C284(17)  c126      1
    C284(17)  c298      1
    C284(17)  c635      1
    C284(17)  c1176     1
    C284(17)  c41       1
    C284(17)  c39       1
    C284(17)  c926      1
    C284(17)  c1667     1
    C284(17)  c264      1
    C284(17)  c1681     1
    C284(17)  c1009     1
    C284(17)  c299      1
    C284(17)  c1642     1
    C284(17)  c1635     1
    C284(17)  c444      1
    C284(17)  c1071     1
    C285(17)  c1026     -1
    C285(17)  c459      1
    C285(17)  c846      1
    C285(17)  c1166     1
    C285(17)  c278      1
    C285(17)  c636      1
    C285(17)  c761      1
    C285(17)  c365      1
    C285(17)  c1038     1
    C285(17)  c1290     1
    C285(17)  c90       1
    C285(17)  c733      1
    C285(17)  c1055     1
    C285(17)  c5        1
    C285(17)  c1016     1
    C285(17)  c580      1
    C285(17)  c594      1
    C286(19)  c1576     -1
    C286(19)  c41       -1
    C286(19)  c786      1
    C286(19)  c29       1
    C286(19)  c789      1
    C286(19)  c489      1
    C286(19)  c770      1
    C286(19)  c506      1
    C286(19)  c1415     1
    C286(19)  c832      1
    C286(19)  c494      1
    C286(19)  c532      1
    C286(19)  c131      -1
    C286(19)  c1557     -1
    C286(19)  c854      -1
    C286(19)  c1279     -1
    C286(19)  c920      -1
    C286(19)  c507      -1
    C286(19)  c508      -1
    C287(19)  c721      -1
    C287(19)  c636      -1
    C287(19)  c900      1
    C287(19)  c1047     1
    C287(19)  c1133     1
    C287(19)  c157      1
    C287(19)  c394      1
    C287(19)  c1180     1
    C287(19)  c71       1
    C287(19)  c478      1
    C287(19)  c23       1
    C287(19)  c257      1
    C287(19)  c384      -1
    C287(19)  c1351     -1
    C287(19)  c1477     -1
    C287(19)  c983      -1
    C287(19)  c1108     -1
    C287(19)  c13       -1
    C287(19)  c848      -1
    C288(18)  c698      -1
    C288(18)  c39       -1
    C288(18)  c489      -1
    C288(18)  c1125     1
    C288(18)  c404      1
    C288(18)  c1661     1
    C288(18)  c131      1
    C288(18)  c700      1
    C288(18)  c1249     1
    C288(18)  c202      1
    C288(18)  c391      1
    C288(18)  c1115     1
    C288(18)  c443      1
    C288(18)  c219      -1
    C288(18)  c1370     -1
    C288(18)  c1696     -1
    C288(18)  c173      -1
    C288(18)  c231      -1
    C289(18)  c1697     -1
    C289(18)  c761      -1
    C289(18)  c157      -1
    C289(18)  c1294     1
    C289(18)  c1341     1
    C289(18)  c2        1
    C289(18)  c384      1
    C289(18)  c1103     1
    C289(18)  c724      1
    C289(18)  c187      1
    C289(18)  c442      1
    C289(18)  c694      1
    C289(18)  c608      1
    C289(18)  c964      -1
    C289(18)  c1123     -1
    C289(18)  c1034     -1
    C289(18)  c1660     -1
    C289(18)  c1029     -1
    C290(18)  c95       -1
    C290(18)  c926      -1
    C290(18)  c770      -1
    C290(18)  c700      -1
    C290(18)  c881      1
    C290(18)  c593      1
    C290(18)  c572      1
    C290(18)  c1557     1
    C290(18)  c219      1
    C290(18)  c1159     1
    C290(18)  c336      1
    C290(18)  c127      1
    C290(18)  c1509     1
    C290(18)  c143      1
    C290(18)  c915      -1
    C290(18)  c656      -1
    C290(18)  c1197     -1
    C290(18)  c1163     -1
    C291(18)  c291      -1
    C291(18)  c365      -1
    C291(18)  c394      -1
    C291(18)  c1103     -1
    C291(18)  c496      1
    C291(18)  c872      1
    C291(18)  c702      1
    C291(18)  c1351     1
    C291(18)  c964      1
    C291(18)  c905      1
    C291(18)  c386      1
    C291(18)  c1371     1
    C291(18)  c590      1
    C291(18)  c1076     1
    C291(18)  c1303     -1
    C291(18)  c1600     -1
    C291(18)  c888      -1
    C291(18)  c340      -1
    C292(17)  c1015     -1
    C292(17)  c1667     -1
    C292(17)  c185      1
    C292(17)  c31       1
    C292(17)  c587      1
    C292(17)  c1210     1
    C292(17)  c468      1
    C292(17)  c1149     1
    C292(17)  c1220     1
    C292(17)  c607      1
    C292(17)  c1286     -1
    C292(17)  c1209     -1
    C292(17)  c215      -1
    C292(17)  c1476     -1
    C292(17)  c1454     -1
    C292(17)  c747      -1
    C292(17)  c417      -1
    C293(17)  c67       -1
    C293(17)  c1038     -1
    C293(17)  c243      1
    C293(17)  c82       1
    C293(17)  c470      1
    C293(17)  c922      1
    C293(17)  c1613     1
    C293(17)  c717      1
    C293(17)  c574      1
    C293(17)  c1098     1
    C293(17)  c1687     -1
    C293(17)  c100      -1
    C293(17)  c706      -1
    C293(17)  c241      -1
    C293(17)  c827      -1
    C293(17)  c1389     -1
    C293(17)  c1142     -1
    C294(21)  c1419     -1
    C294(21)  c264      -1
    C294(21)  c506      -1
    C294(21)  c1249     -1
    C294(21)  c1159     -1
    C294(21)  c587      -1
    C294(21)  c1067     1
    C294(21)  c1494     1
    C294(21)  c632      1
    C294(21)  c1013     1
    C294(21)  c1083     1
    C294(21)  c581      -1
    C294(21)  c1203     -1
    C294(21)  c274      -1
    C294(21)  c1428     -1
    C294(21)  c1365     -1
    C294(21)  c628      -1
    C294(21)  c244      -1
    C294(21)  c1467     -1
    C294(21)  c660      -1
    C294(21)  c334      -1
    C295(21)  c812      -1
    C295(21)  c1290     -1
    C295(21)  c1180     -1
    C295(21)  c724      -1
    C295(21)  c905      -1
    C295(21)  c470      -1
    C295(21)  c125      1
    C295(21)  c292      1
    C295(21)  c1498     1
    C295(21)  c569      1
    C295(21)  c513      1
    C295(21)  c134      -1
    C295(21)  c1405     -1
    C295(21)  c331      -1
    C295(21)  c158      -1
    C295(21)  c354      -1
    C295(21)  c113      -1
    C295(21)  c284      -1
    C295(21)  c924      -1
    C295(21)  c740      -1
    C295(21)  c874      -1
    C296(20)  c208      1
    C296(20)  c351      1
    C296(20)  c233      1
    C296(20)  c854      1
    C296(20)  c1370     1
    C296(20)  c915      1
    C296(20)  c1286     1
    C296(20)  c581      1
    C296(20)  c1474     1
    C296(20)  c730      1
    C296(20)  c387      1
    C296(20)  c355      1
    C296(20)  c1312     1
    C296(20)  c1575     1
    C296(20)  c72       1
    C296(20)  c776      1
    C296(20)  c451      1
    C296(20)  c729      -1
    C296(20)  c1278     -1
    C296(20)  c302      -1
    C297(20)  c1567     1
    C297(20)  c765      1
    C297(20)  c973      1
    C297(20)  c1477     1
    C297(20)  c1123     1
    C297(20)  c1303     1
    C297(20)  c1687     1
    C297(20)  c134      1
    C297(20)  c816      1
    C297(20)  c916      1
    C297(20)  c26       1
    C297(20)  c282      1
    C297(20)  c366      1
    C297(20)  c81       1
    C297(20)  c736      1
    C297(20)  c1543     1
    C297(20)  c1550     1
    C297(20)  c932      -1
    C297(20)  c1627     -1
    C297(20)  c595      -1
    C298(23)  c348      -1
    C298(23)  c1681     -1
    C298(23)  c1474     -1
    C298(23)  c677      1
    C298(23)  c1227     1
    C298(23)  c1174     1
    C298(23)  c1279     1
    C298(23)  c1696     1
    C298(23)  c656      1
    C298(23)  c1209     1
    C298(23)  c1203     1
    C298(23)  c729      1
    C298(23)  c1572     1
    C298(23)  c286      1
    C298(23)  c867      1
    C298(23)  c1242     1
    C298(23)  c1236     1
    C298(23)  c7        1
    C298(23)  c1430     1
    C298(23)  c204      1
    C298(23)  c1271     -1
    C298(23)  c1020     -1
    C298(23)  c891      -1
    C299(23)  c792      -1
    C299(23)  c90       -1
    C299(23)  c816      -1
    C299(23)  c675      1
    C299(23)  c866      1
    C299(23)  c1054     1
    C299(23)  c983      1
    C299(23)  c1034     1
    C299(23)  c1600     1
    C299(23)  c100      1
    C299(23)  c1405     1
    C299(23)  c932      1
    C299(23)  c1022     1
    C299(23)  c548      1
    C299(23)  c501      1
    C299(23)  c1245     1
    C299(23)  c471      1
    C299(23)  c948      1
    C299(23)  c1597     1
    C299(23)  c810      1
    C299(23)  c449      -1
    C299(23)  c1002     -1
    C299(23)  c1601     -1
    C300(20)  c1619     -1
    C300(20)  c1046     -1
    C300(20)  c1009     -1
    C300(20)  c1415     -1
    C300(20)  c202      -1
    C300(20)  c336      -1
    C300(20)  c1210     -1
    C300(20)  c1494     -1
    C300(20)  c730      -1
    C300(20)  c1572     -1
    C300(20)  c437      1
    C300(20)  c1282     -1
    C300(20)  c259      -1
    C300(20)  c1546     -1
    C300(20)  c207      -1
    C300(20)  c697      -1
    C300(20)  c411      -1
    C300(20)  c779      -1
    C300(20)  c273      -1
    C300(20)  c1283     -1
    C301(20)  c1589     -1
    C301(20)  c1237     -1
    C301(20)  c733      -1
    C301(20)  c71       -1
    C301(20)  c187      -1
    C301(20)  c386      -1
    C301(20)  c922      -1
    C301(20)  c292      -1
    C301(20)  c916      -1
    C301(20)  c1022     -1
    C301(20)  c1455     1
    C301(20)  c186      -1
    C301(20)  c603      -1
    C301(20)  c643      -1
    C301(20)  c1335     -1
    C301(20)  c901      -1
    C301(20)  c1466     -1
    C301(20)  c1357     -1
    C301(20)  c642      -1
    C301(20)  c871      -1
    C302(21)  c1191     1
    C302(21)  c424      1
    C302(21)  c1232     1
    C302(21)  c1458     1
    C302(21)  c920      1
    C302(21)  c173      1
    C302(21)  c1197     1
    C302(21)  c215      1
    C302(21)  c274      1
    C302(21)  c1278     1
    C302(21)  c1271     1
    C302(21)  c1282     1
    C302(21)  c1124     1
    C302(21)  c439      1
    C302(21)  c304      1
    C302(21)  c1211     1
    C302(21)  c1147     1
    C302(21)  c1259     1
    C302(21)  c279      1
    C302(21)  c1692     1
    C302(21)  c1021     1
    C303(21)  c688      1
    C303(21)  c1533     1
    C303(21)  c859      1
    C303(21)  c664      1
    C303(21)  c1108     1
    C303(21)  c1660     1
    C303(21)  c888      1
    C303(21)  c706      1
    C303(21)  c331      1
    C303(21)  c1627     1
    C303(21)  c449      1
    C303(21)  c186      1
    C303(21)  c1549     1
    C303(21)  c161      1
    C303(21)  c839      1
    C303(21)  c1606     1
    C303(21)  c360      1
    C303(21)  c858      1
    C303(21)  c28       1
    C303(21)  c216      1
    C303(21)  c309      1
    C304(21)  c387      -1
    C304(21)  c286      -1
    C304(21)  c1124     -1
    C304(21)  c483      1
    C304(21)  c1340     1
    C304(21)  c1500     1
    C304(21)  c507      1
    C304(21)  c231      1
    C304(21)  c1163     1
    C304(21)  c1476     1
    C304(21)  c1428     1
    C304(21)  c302      1
    C304(21)  c1020     1
    C304(21)  c259      1
    C304(21)  c15       1
    C304(21)  c843      1
    C304(21)  c1493     1
    C304(21)  c1394     1
    C304(21)  c941      1
    C304(21)  c845      1
    C304(21)  c1264     -1
    C305(21)  c26       -1
    C305(21)  c548      -1
    C305(21)  c1549     -1
    C305(21)  c764      1
    C305(21)  c1235     1
    C305(21)  c1693     1
    C305(21)  c13       1
    C305(21)  c1029     1
    C305(21)  c340      1
    C305(21)  c241      1
    C305(21)  c158      1
    C305(21)  c595      1
    C305(21)  c1002     1
    C305(21)  c603      1
    C305(21)  c588      1
    C305(21)  c1491     1
    C305(21)  c527      1
    C305(21)  c33       1
    C305(21)  c260      1
    C305(21)  c432      1
    C305(21)  c1360     -1
    C306(19)  c1610     -1
    C306(19)  c299      -1
    C306(19)  c355      -1
    C306(19)  c867      -1
    C306(19)  c439      -1
    C306(19)  c15       -1
    C306(19)  c993      1
    C306(19)  c149      1
    C306(19)  c1199     1
    C306(19)  c508      1
    C306(19)  c1454     1
    C306(19)  c1365     1
    C306(19)  c891      1
    C306(19)  c1546     1
    C306(19)  c1264     1
    C306(19)  c328      1
    C306(19)  c609      1
    C306(19)  c774      1
    C306(19)  c1095     1
    C307(19)  c1446     -1
    C307(19)  c1055     -1
    C307(19)  c282      -1
    C307(19)  c501      -1
    C307(19)  c161      -1
    C307(19)  c588      -1
    C307(19)  c723      1
    C307(19)  c251      1
    C307(19)  c887      1
    C307(19)  c848      1
    C307(19)  c827      1
    C307(19)  c354      1
    C307(19)  c1601     1
    C307(19)  c643      1
    C307(19)  c1360     1
    C307(19)  c1571     1
    C307(19)  c1342     1
    C307(19)  c430      1
    C307(19)  c1345     1
    C308(20)  c885      -1
    C308(20)  c1617     -1
    C308(20)  c1642     -1
    C308(20)  c832      -1
    C308(20)  c391      -1
    C308(20)  c127      -1
    C308(20)  c468      -1
    C308(20)  c632      -1
    C308(20)  c1312     -1
    C308(20)  c1242     -1
    C308(20)  c437      -1
    C308(20)  c304      -1
    C308(20)  c843      -1
    C308(20)  c328      -1
    C308(20)  c207      1
    C308(20)  c1184     -1
    C308(20)  c498      -1
    C308(20)  c376      -1
    C308(20)  c223      -1
    C308(20)  c445      -1
    C309(20)  c1198     -1
    C309(20)  c1604     -1
    C309(20)  c5        -1
    C309(20)  c478      -1
    C309(20)  c442      -1
    C309(20)  c1371     -1
    C309(20)  c1613     -1
    C309(20)  c1498     -1
    C309(20)  c366      -1
    C309(20)  c1245     -1
    C309(20)  c1455     -1
    C309(20)  c839      -1
    C309(20)  c1491     -1
    C309(20)  c1571     -1
    C309(20)  c1335     1
    C309(20)  c596      -1
    C309(20)  c1150     -1
    C309(20)  c1214     -1
    C309(20)  c1347     -1
    C309(20)  c1559     -1
    C310(12)  c1211     -1
    C310(12)  c628      1
    C310(12)  c697      1
    C310(12)  c1184     1
    C310(12)  c1343     1
    C310(12)  c1459     1
    C310(12)  c1082     1
    C310(12)  c91       1
    C310(12)  c98       -1
    C310(12)  c1344     -1
    C310(12)  c358      -1
    C310(12)  c577      -1
    C311(12)  c1606     -1
    C311(12)  c113      1
    C311(12)  c901      1
    C311(12)  c596      1
    C311(12)  c1012     1
    C311(12)  c1514     1
    C311(12)  c462      1
    C311(12)  c584      1
    C311(12)  c105      -1
    C311(12)  c37       -1
    C311(12)  c45       -1
    C311(12)  c310      -1
    C312(15)  c1147     -1
    C312(15)  c838      1
    C312(15)  c1539     1
    C312(15)  c244      1
    C312(15)  c411      1
    C312(15)  c498      1
    C312(15)  c98       1
    C312(15)  c177      1
    C312(15)  c1655     1
    C312(15)  c545      1
    C312(15)  c1287     1
    C312(15)  c767      1
    C312(15)  c181      1
    C312(15)  c1513     -1
    C312(15)  c1540     -1
    C313(15)  c360      -1
    C313(15)  c1190     1
    C313(15)  c689      1
    C313(15)  c284      1
    C313(15)  c1466     1
    C313(15)  c1150     1
    C313(15)  c105      1
    C313(15)  c431      1
    C313(15)  c1292     1
    C313(15)  c633      1
    C313(15)  c1452     1
    C313(15)  c392      1
    C313(15)  c1066     1
    C313(15)  c1410     -1
    C313(15)  c627      -1
    C314(15)  c1074     -1
    C314(15)  c1635     -1
    C314(15)  c1149     -1
    C314(15)  c1575     -1
    C314(15)  c1236     -1
    C314(15)  c1259     -1
    C314(15)  c1493     -1
    C314(15)  c609      -1
    C314(15)  c1343     -1
    C314(15)  c177      -1
    C314(15)  c1138     1
    C314(15)  c1172     1
    C314(15)  c680      -1
    C314(15)  c1623     -1
    C314(15)  c1336     -1
    C315(15)  c1702     -1
    C315(15)  c1016     -1
    C315(15)  c717      -1
    C315(15)  c81       -1
    C315(15)  c471      -1
    C315(15)  c858      -1
    C315(15)  c527      -1
    C315(15)  c1342     -1
    C315(15)  c1012     -1
    C315(15)  c431      -1
    C315(15)  c93       1
    C315(15)  c1506     1
    C315(15)  c1057     -1
    C315(15)  c46       -1
    C315(15)  c359      -1
    C316(15)  c1655     -1
    C316(15)  c343      1
    C316(15)  c825      1
    C316(15)  c747      1
    C316(15)  c1467     1
    C316(15)  c779      1
    C316(15)  c376      1
    C316(15)  c1344     1
    C316(15)  c1513     1
    C316(15)  c680      1
    C316(15)  c604      1
    C316(15)  c1376     1
    C316(15)  c1087     1
    C316(15)  c1420     1
    C316(15)  c1698     -1
    C317(15)  c1292     -1
    C317(15)  c1685     1
    C317(15)  c288      1
    C317(15)  c1389     1
    C317(15)  c924      1
    C317(15)  c1357     1
    C317(15)  c1214     1
    C317(15)  c37       1
    C317(15)  c1410     1
    C317(15)  c1057     1
    C317(15)  c406      1
    C317(15)  c1534     1
    C317(15)  c240      1
    C317(15)  c1439     1
    C317(15)  c35       -1
    C318(17)  c72       -1
    C318(17)  c7        -1
    C318(17)  c279      -1
    C318(17)  c1394     -1
    C318(17)  c1459     -1
    C318(17)  c545      -1
    C318(17)  c604      -1
    C318(17)  c899      1
    C318(17)  c232      1
    C318(17)  c660      1
    C318(17)  c273      1
    C318(17)  c223      1
    C318(17)  c358      1
    C318(17)  c1623     1
    C318(17)  c804      1
    C318(17)  c479      1
    C318(17)  c673      -1
    C319(17)  c736      -1
    C319(17)  c948      -1
    C319(17)  c28       -1
    C319(17)  c33       -1
    C319(17)  c1514     -1
    C319(17)  c633      -1
    C319(17)  c406      -1
    C319(17)  c1112     1
    C319(17)  c1349     1
    C319(17)  c740      1
    C319(17)  c642      1
    C319(17)  c1347     1
    C319(17)  c45       1
    C319(17)  c46       1
    C319(17)  c833      1
    C319(17)  c842      1
    C319(17)  c61       -1
    C320(15)  c1287     -1
    C320(15)  c1376     -1
    C320(15)  c1432     1
    C320(15)  c1542     1
    C320(15)  c417      1
    C320(15)  c334      1
    C320(15)  c1283     1
    C320(15)  c445      1
    C320(15)  c577      1
    C320(15)  c1540     1
    C320(15)  c1336     1
    C320(15)  c1698     1
    C320(15)  c673      1
    C320(15)  c1441     1
    C320(15)  c986      1
    C321(15)  c1452     -1
    C321(15)  c1534     -1
    C321(15)  c1689     1
    C321(15)  c821      1
    C321(15)  c1142     1
    C321(15)  c874      1
    C321(15)  c871      1
    C321(15)  c1559     1
    C321(15)  c310      1
    C321(15)  c627      1
    C321(15)  c359      1
    C321(15)  c35       1
    C321(15)  c61       1
    C321(15)  c968      1
    C321(15)  c369      1
    C322(20)  c1132     -1
    C322(20)  c444      -1
    C322(20)  c494      -1
    C322(20)  c1115     -1
    C322(20)  c1509     -1
    C322(20)  c1220     -1
    C322(20)  c1013     -1
    C322(20)  c776      -1
    C322(20)  c1430     -1
    C322(20)  c1692     -1
    C322(20)  c941      -1
    C322(20)  c774      -1
    C322(20)  c1082     -1
    C322(20)  c767      -1
    C322(20)  c1138     -1
    C322(20)  c1087     -1
    C322(20)  c804      -1
    C322(20)  c1441     -1
    C322(20)  c178      1
    C322(20)  c428      -1
    C323(20)  c77       -1
    C323(20)  c580      -1
    C323(20)  c23       -1
    C323(20)  c694      -1
    C323(20)  c590      -1
    C323(20)  c574      -1
    C323(20)  c569      -1
    C323(20)  c1543     -1
    C323(20)  c1597     -1
    C323(20)  c216      -1
    C323(20)  c260      -1
    C323(20)  c430      -1
    C323(20)  c462      -1
    C323(20)  c392      -1
    C323(20)  c93       -1
    C323(20)  c240      -1
    C323(20)  c833      -1
    C323(20)  c968      -1
    C323(20)  c341      1
    C323(20)  c1263     -1
    C324(20)  c148      -1
    C324(20)  c1071     -1
    C324(20)  c532      -1
    C324(20)  c443      -1
    C324(20)  c143      -1
    C324(20)  c607      -1
    C324(20)  c1083     -1
    C324(20)  c451      -1
    C324(20)  c204      -1
    C324(20)  c1021     -1
    C324(20)  c845      -1
    C324(20)  c1095     -1
    C324(20)  c91       -1
    C324(20)  c181      -1
    C324(20)  c1172     -1
    C324(20)  c1420     -1
    C324(20)  c479      -1
    C324(20)  c986      -1
    C324(20)  c178      -1
    C324(20)  c428      1
    C325(20)  c712      -1
    C325(20)  c594      -1
    C325(20)  c257      -1
    C325(20)  c608      -1
    C325(20)  c1076     -1
    C325(20)  c1098     -1
    C325(20)  c513      -1
    C325(20)  c1550     -1
    C325(20)  c810      -1
    C325(20)  c309      -1
    C325(20)  c432      -1
    C325(20)  c1345     -1
    C325(20)  c584      -1
    C325(20)  c1066     -1
    C325(20)  c1506     -1
    C325(20)  c1439     -1
    C325(20)  c842      -1
    C325(20)  c369      -1
    C325(20)  c341      -1
    C325(20)  c1263     1
    MARKER    'MARKER'                 'INTORG'
    I326(1)   c438      1
    I327(1)   c1545     1
    I328(3)   c1402     1
    I328(3)   c559      -1
    I328(3)   c408      1
    I329(1)   c1545     1
    I330(1)   c1545     1
    I331(3)   c80       1
    I331(3)   c152      -1
    I331(3)   c1545     1
    I332(1)   c1545     1
    I333(1)   c1545     1
    I334(3)   c1402     1
    I334(3)   c553      -1
    I334(3)   c1050     1
    I335(1)   c1545     1
    I336(3)   c553      1
    I336(3)   c116      -1
    I336(3)   c1545     1
    I337(1)   c1545     1
    I338(3)   c575      1
    I338(3)   c405      -1
    I338(3)   c1545     1
    I339(1)   c1545     1
    I340(3)   c405      1
    I340(3)   c402      -1
    I340(3)   c1545     1
    I341(1)   c1545     1
    I342(1)   c1545     1
    I343(3)   c1402     1
    I343(3)   c1005     -1
    I343(3)   c1006     1
    I344(1)   c1545     1
    I345(1)   c1545     1
    I346(3)   c1402     -1
    I346(3)   c1092     1
    I346(3)   c1682     1
    I347(1)   c1545     1
    I348(3)   c1402     1
    I348(3)   c224      -1
    I348(3)   c373      1
    I349(1)   c1545     1
    I350(1)   c1545     1
    I351(3)   c168      1
    I351(3)   c73       -1
    I351(3)   c1545     1
    I352(3)   c73       1
    I352(3)   c1434     -1
    I352(3)   c1545     1
    I353(1)   c1545     1
    I354(3)   c1434     1
    I354(3)   c1255     -1
    I354(3)   c1545     1
    I355(1)   c1545     1
    I356(1)   c1545     1
    I357(3)   c1465     1
    I357(3)   c1296     -1
    I357(3)   c1545     1
    I358(1)   c1545     1
    I359(3)   c1296     1
    I359(3)   c1678     -1
    I359(3)   c1545     1
    I360(1)   c1545     1
    I361(1)   c1545     1
    I362(1)   c1545     1
    I363(3)   c1427     1
    I363(3)   c49       -1
    I363(3)   c1545     1
    I364(1)   c1545     1
    I365(3)   c49       1
    I365(3)   c1632     -1
    I365(3)   c1545     1
    I366(1)   c1545     1
    I367(2)   c1402     1
    I367(2)   c852      1
    I368(3)   c1402     -1
    I368(3)   c1616     1
    I368(3)   c265      1
    I369(3)   c80       -1
    I369(3)   c1616     1
    I369(3)   c1691     1
    I370(3)   c1616     1
    I370(3)   c368      -1
    I370(3)   c1431     1
    I371(3)   c402      -1
    I371(3)   c1616     1
    I371(3)   c43       1
    I372(3)   c1616     1
    I372(3)   c630      -1
    I372(3)   c965      1
    I373(3)   c1616     1
    I373(3)   c36       -1
    I373(3)   c1492     1
    I374(2)   c1616     1
    I374(2)   c994      1
    I375(3)   c1402     1
    I375(3)   c630      -1
    I375(3)   c1137     1
    I376(3)   c1402     1
    I376(3)   c36       -1
    I376(3)   c645      1
    I377(3)   c1402     1
    I377(3)   c1616     -1
    I377(3)   c38       1
    I378(3)   c1402     1
    I378(3)   c80       -1
    I378(3)   c1165     1
    I379(3)   c1402     1
    I379(3)   c368      -1
    I379(3)   c1229     1
    I380(3)   c1402     1
    I380(3)   c402      -1
    I380(3)   c1207     1
    I381(3)   c1402     -1
    I381(3)   c559      1
    I381(3)   c65       1
    I382(3)   c1402     1
    I382(3)   c152      -1
    I382(3)   c1442     1
    I383(3)   c559      1
    I383(3)   c630      -1
    I383(3)   c802      1
    I384(3)   c559      1
    I384(3)   c36       -1
    I384(3)   c691      1
    I385(2)   c559      1
    I385(2)   c290      1
    I386(3)   c1402     -1
    I386(3)   c152      1
    I386(3)   c1157     1
    I387(3)   c1402     -1
    I387(3)   c80       1
    I387(3)   c1481     1
    I388(3)   c559      -1
    I388(3)   c152      1
    I388(3)   c1636     1
    I389(3)   c80       1
    I389(3)   c368      -1
    I389(3)   c1321     1
    I390(3)   c152      1
    I390(3)   c368      -1
    I390(3)   c1321     1
    I391(3)   c80       1
    I391(3)   c630      -1
    I391(3)   c1023     1
    I392(3)   c152      1
    I392(3)   c630      -1
    I392(3)   c1023     1
    I393(3)   c152      1
    I393(3)   c36       -1
    I393(3)   c1145     1
    I394(2)   c152      1
    I394(2)   c1091     1
    I395(3)   c1402     -1
    I395(3)   c368      1
    I395(3)   c1624     1
    I396(3)   c559      -1
    I396(3)   c368      1
    I396(3)   c1386     1
    I397(3)   c152      -1
    I397(3)   c368      1
    I397(3)   c928      1
    I398(3)   c368      1
    I398(3)   c630      -1
    I398(3)   c235      1
    I399(3)   c368      1
    I399(3)   c36       -1
    I399(3)   c1547     1
    I400(2)   c368      1
    I400(2)   c1305     1
    I401(3)   c1402     -1
    I401(3)   c553      1
    I401(3)   c551      1
    I402(3)   c1402     -1
    I402(3)   c116      1
    I402(3)   c1686     1
    I403(3)   c559      -1
    I403(3)   c553      1
    I403(3)   c375      1
    I404(3)   c1402     1
    I404(3)   c405      -1
    I404(3)   c515      1
    I405(3)   c553      1
    I405(3)   c402      -1
    I405(3)   c1068     1
    I406(3)   c116      1
    I406(3)   c630      -1
    I406(3)   c1640     1
    I407(3)   c116      1
    I407(3)   c36       -1
    I407(3)   c822      1
    I408(3)   c1402     1
    I408(3)   c929      -1
    I408(3)   c1173     1
    I409(2)   c116      1
    I409(2)   c696      1
    I410(3)   c1402     -1
    I410(3)   c402      1
    I410(3)   c9        1
    I411(3)   c1402     -1
    I411(3)   c575      1
    I411(3)   c1187     1
    I412(3)   c1402     -1
    I412(3)   c405      1
    I412(3)   c1187     1
    I413(3)   c559      -1
    I413(3)   c405      1
    I413(3)   c472      1
    I414(3)   c80       -1
    I414(3)   c575      1
    I414(3)   c955      1
    I415(3)   c152      -1
    I415(3)   c575      1
    I415(3)   c955      1
    I416(3)   c575      1
    I416(3)   c368      -1
    I416(3)   c1269     1
    I417(3)   c405      1
    I417(3)   c368      -1
    I417(3)   c1269     1
    I418(3)   c553      -1
    I418(3)   c575      1
    I418(3)   c1293     1
    I419(3)   c116      -1
    I419(3)   c405      1
    I419(3)   c1293     1
    I420(3)   c402      1
    I420(3)   c630      -1
    I420(3)   c692      1
    I421(3)   c575      1
    I421(3)   c1005     -1
    I421(3)   c117      1
    I422(3)   c402      1
    I422(3)   c36       -1
    I422(3)   c205      1
    I423(3)   c575      1
    I423(3)   c929      -1
    I423(3)   c1401     1
    I424(2)   c402      1
    I424(2)   c836      1
    I425(3)   c630      1
    I425(3)   c36       -1
    I425(3)   c10       1
    I426(2)   c630      1
    I426(2)   c323      1
    I427(3)   c1402     1
    I427(3)   c575      -1
    I427(3)   c1680     1
    I428(3)   c1402     1
    I428(3)   c1092     -1
    I428(3)   c674      1
    I429(3)   c1402     1
    I429(3)   c1255     -1
    I429(3)   c102      1
    I430(3)   c1402     -1
    I430(3)   c1005     1
    I430(3)   c1353     1
    I431(3)   c559      -1
    I431(3)   c1005     1
    I431(3)   c1422     1
    I432(3)   c1402     1
    I432(3)   c116      -1
    I432(3)   c201      1
    I433(3)   c402      -1
    I433(3)   c1005     1
    I433(3)   c722      1
    I434(3)   c1005     1
    I434(3)   c630      -1
    I434(3)   c944      1
    I435(3)   c1005     1
    I435(3)   c36       -1
    I435(3)   c339      1
    I436(2)   c1005     1
    I436(2)   c1457     1
    I437(3)   c559      -1
    I437(3)   c1092     1
    I437(3)   c1501     1
    I438(3)   c402      -1
    I438(3)   c1092     1
    I438(3)   c1111     1
    I439(3)   c1005     -1
    I439(3)   c1092     1
    I439(3)   c1177     1
    I440(3)   c630      -1
    I440(3)   c36       1
    I440(3)   c1035     1
    I441(2)   c36       1
    I441(2)   c1552     1
    I442(3)   c224      1
    I442(3)   c630      -1
    I442(3)   c862      1
    I443(3)   c224      1
    I443(3)   c36       -1
    I443(3)   c1231     1
    I444(3)   c1402     -1
    I444(3)   c224      1
    I444(3)   c1583     1
    I445(2)   c224      1
    I445(2)   c834      1
    I446(3)   c1402     -1
    I446(3)   c168      1
    I446(3)   c519      1
    I447(3)   c1402     -1
    I447(3)   c73       1
    I447(3)   c519      1
    I448(3)   c1402     -1
    I448(3)   c1434     1
    I448(3)   c519      1
    I449(3)   c1402     -1
    I449(3)   c1255     1
    I449(3)   c605      1
    I450(3)   c1434     1
    I450(3)   c630      -1
    I450(3)   c346      1
    I451(3)   c1255     1
    I451(3)   c630      -1
    I451(3)   c346      1
    I452(3)   c1434     1
    I452(3)   c36       -1
    I452(3)   c1530     1
    I453(3)   c1255     1
    I453(3)   c36       -1
    I453(3)   c1530     1
    I454(3)   c224      -1
    I454(3)   c1434     1
    I454(3)   c115      1
    I455(3)   c224      -1
    I455(3)   c1255     1
    I455(3)   c115      1
    I456(3)   c168      1
    I456(3)   c1296     -1
    I456(3)   c849      1
    I457(3)   c168      1
    I457(3)   c1678     -1
    I457(3)   c849      1
    I458(3)   c73       1
    I458(3)   c1678     -1
    I458(3)   c849      1
    I459(3)   c168      1
    I459(3)   c929      -1
    I459(3)   c1122     1
    I460(3)   c73       1
    I460(3)   c929      -1
    I460(3)   c1122     1
    I461(3)   c1434     1
    I461(3)   c929      -1
    I461(3)   c1122     1
    I462(3)   c1255     1
    I462(3)   c929      -1
    I462(3)   c1122     1
    I463(3)   c168      1
    I463(3)   c1632     -1
    I463(3)   c1153     1
    I464(2)   c1255     1
    I464(2)   c738      1
    I465(3)   c1402     -1
    I465(3)   c1465     1
    I465(3)   c87       1
    I466(3)   c1402     -1
    I466(3)   c1296     1
    I466(3)   c1158     1
    I467(3)   c1402     -1
    I467(3)   c1678     1
    I467(3)   c1195     1
    I468(3)   c1296     1
    I468(3)   c630      -1
    I468(3)   c19       1
    I469(3)   c1678     1
    I469(3)   c630      -1
    I469(3)   c19       1
    I470(3)   c1296     1
    I470(3)   c36       -1
    I470(3)   c972      1
    I471(3)   c1678     1
    I471(3)   c36       -1
    I471(3)   c972      1
    I472(3)   c224      -1
    I472(3)   c1296     1
    I472(3)   c1148     1
    I473(3)   c224      -1
    I473(3)   c1678     1
    I473(3)   c1148     1
    I474(3)   c1434     -1
    I474(3)   c1465     1
    I474(3)   c641      1
    I475(3)   c1255     -1
    I475(3)   c1296     1
    I475(3)   c641      1
    I476(3)   c1465     1
    I476(3)   c929      -1
    I476(3)   c300      1
    I477(3)   c1296     1
    I477(3)   c929      -1
    I477(3)   c300      1
    I478(3)   c1678     1
    I478(3)   c929      -1
    I478(3)   c300      1
    I479(3)   c1465     1
    I479(3)   c49       -1
    I479(3)   c370      1
    I480(3)   c1465     1
    I480(3)   c1632     -1
    I480(3)   c370      1
    I481(3)   c1296     1
    I481(3)   c1632     -1
    I481(3)   c370      1
    I482(2)   c1678     1
    I482(2)   c1297     1
    I483(3)   c1402     -1
    I483(3)   c929      1
    I483(3)   c1701     1
    I484(3)   c630      -1
    I484(3)   c929      1
    I484(3)   c844      1
    I485(3)   c36       -1
    I485(3)   c929      1
    I485(3)   c1333     1
    I486(3)   c224      -1
    I486(3)   c929      1
    I486(3)   c315      1
    I487(2)   c929      1
    I487(2)   c540      1
    I488(3)   c1402     -1
    I488(3)   c1427     1
    I488(3)   c784      1
    I489(3)   c1402     -1
    I489(3)   c49       1
    I489(3)   c1485     1
    I490(3)   c1402     -1
    I490(3)   c1632     1
    I490(3)   c576      1
    I491(3)   c1632     1
    I491(3)   c630      -1
    I491(3)   c16       1
    I492(3)   c49       1
    I492(3)   c36       -1
    I492(3)   c1390     1
    I493(3)   c1632     1
    I493(3)   c36       -1
    I493(3)   c1390     1
    I494(3)   c224      -1
    I494(3)   c1632     1
    I494(3)   c469      1
    I495(3)   c73       -1
    I495(3)   c1427     1
    I495(3)   c1368     1
    I496(3)   c1434     -1
    I496(3)   c1427     1
    I496(3)   c1368     1
    I497(3)   c1255     -1
    I497(3)   c1427     1
    I497(3)   c1368     1
    I498(3)   c1255     -1
    I498(3)   c49       1
    I498(3)   c1368     1
    I499(3)   c1296     -1
    I499(3)   c1427     1
    I499(3)   c794      1
    I500(3)   c1678     -1
    I500(3)   c49       1
    I500(3)   c794      1
    I501(3)   c1427     1
    I501(3)   c929      -1
    I501(3)   c1585     1
    I502(3)   c49       1
    I502(3)   c929      -1
    I502(3)   c1585     1
    I503(3)   c1632     1
    I503(3)   c929      -1
    I503(3)   c1585     1
    I504(2)   c1632     1
    I504(2)   c324      1
    I505(2)   c1402     -1
    I505(2)   c936      1
    I506(2)   c1616     -1
    I506(2)   c937      1
    I507(2)   c80       -1
    I507(2)   c0        1
    I508(2)   c368      -1
    I508(2)   c1669     1
    I509(2)   c575      -1
    I509(2)   c1073     1
    I510(2)   c630      -1
    I510(2)   c1504     1
    I511(2)   c1092     -1
    I511(2)   c1061     1
    I512(2)   c36       -1
    I512(2)   c1369     1
    I513(2)   c168      -1
    I513(2)   c1562     1
    I514(2)   c1465     -1
    I514(2)   c1206     1
    I515(2)   c929      -1
    I515(2)   c1093     1
    I516(2)   c1427     -1
    I516(2)   c1007     1
    I517(1)   c490      1
    I518(1)   c388      1
    I519(1)   c388      1
    I520(3)   c6        1
    I520(3)   c1657     -1
    I520(3)   c388      1
    I521(1)   c388      1
    I522(1)   c388      1
    I523(1)   c388      1
    I524(1)   c388      1
    I525(1)   c388      1
    I526(1)   c388      1
    I527(1)   c388      1
    I528(1)   c388      1
    I529(1)   c388      1
    I530(1)   c388      1
    I531(3)   c1582     1
    I531(3)   c1621     -1
    I531(3)   c22       1
    I532(2)   c1582     1
    I532(2)   c1462     1
    I533(3)   c6        -1
    I533(3)   c1582     1
    I533(3)   c666      1
    I534(3)   c1657     -1
    I534(3)   c1582     1
    I534(3)   c666      1
    I535(3)   c1582     1
    I535(3)   c192      -1
    I535(3)   c1641     1
    I536(3)   c1582     1
    I536(3)   c1075     -1
    I536(3)   c521      1
    I537(3)   c1582     1
    I537(3)   c1377     -1
    I537(3)   c1650     1
    I538(3)   c1582     1
    I538(3)   c646      -1
    I538(3)   c1528     1
    I539(3)   c1582     1
    I539(3)   c725      -1
    I539(3)   c995      1
    I540(3)   c1582     1
    I540(3)   c796      -1
    I540(3)   c1327     1
    I541(3)   c1582     1
    I541(3)   c732      -1
    I541(3)   c837      1
    I542(3)   c1582     -1
    I542(3)   c1621     1
    I542(3)   c868      1
    I543(2)   c1621     1
    I543(2)   c1417     1
    I544(3)   c6        1
    I544(3)   c1582     -1
    I544(3)   c969      1
    I545(3)   c6        1
    I545(3)   c1621     -1
    I545(3)   c60       1
    I546(3)   c6        1
    I546(3)   c192      -1
    I546(3)   c788      1
    I547(3)   c6        1
    I547(3)   c1075     -1
    I547(3)   c923      1
    I548(3)   c6        1
    I548(3)   c1377     -1
    I548(3)   c111      1
    I549(3)   c6        1
    I549(3)   c646      -1
    I549(3)   c623      1
    I550(3)   c6        1
    I550(3)   c725      -1
    I550(3)   c1568     1
    I551(3)   c6        1
    I551(3)   c796      -1
    I551(3)   c624      1
    I552(3)   c6        1
    I552(3)   c732      -1
    I552(3)   c1398     1
    I553(2)   c1657     1
    I553(2)   c1222     1
    I554(3)   c1582     -1
    I554(3)   c192      1
    I554(3)   c1101     1
    I555(3)   c1621     -1
    I555(3)   c192      1
    I555(3)   c502      1
    I556(3)   c192      1
    I556(3)   c1377     -1
    I556(3)   c757      1
    I557(3)   c192      1
    I557(3)   c796      -1
    I557(3)   c1527     1
    I558(3)   c192      1
    I558(3)   c732      -1
    I558(3)   c1135     1
    I559(2)   c192      1
    I559(2)   c1003     1
    I560(3)   c1582     -1
    I560(3)   c1075     1
    I560(3)   c563      1
    I561(3)   c1621     -1
    I561(3)   c1075     1
    I561(3)   c1298     1
    I562(3)   c1075     1
    I562(3)   c1377     -1
    I562(3)   c1256     1
    I563(3)   c1075     1
    I563(3)   c725      -1
    I563(3)   c448      1
    I564(3)   c1075     1
    I564(3)   c796      -1
    I564(3)   c493      1
    I565(3)   c1075     1
    I565(3)   c732      -1
    I565(3)   c465      1
    I566(2)   c1075     1
    I566(2)   c1155     1
    I567(3)   c1621     -1
    I567(3)   c1377     1
    I567(3)   c1524     1
    I568(3)   c1582     -1
    I568(3)   c1377     1
    I568(3)   c1100     1
    I569(3)   c1377     1
    I569(3)   c796      -1
    I569(3)   c686      1
    I570(3)   c1377     1
    I570(3)   c732      -1
    I570(3)   c734      1
    I571(2)   c1377     1
    I571(2)   c531      1
    I572(3)   c1582     -1
    I572(3)   c1444     1
    I572(3)   c1495     1
    I573(3)   c1621     -1
    I573(3)   c1444     1
    I573(3)   c249      1
    I574(3)   c192      -1
    I574(3)   c1444     1
    I574(3)   c815      1
    I575(3)   c1075     -1
    I575(3)   c1444     1
    I575(3)   c957      1
    I576(3)   c1377     -1
    I576(3)   c1444     1
    I576(3)   c400      1
    I577(3)   c1444     1
    I577(3)   c947      -1
    I577(3)   c1221     1
    I578(3)   c646      -1
    I578(3)   c1444     1
    I578(3)   c557      1
    I579(3)   c725      -1
    I579(3)   c1444     1
    I579(3)   c907      1
    I580(3)   c796      -1
    I580(3)   c1444     1
    I580(3)   c1212     1
    I581(3)   c732      -1
    I581(3)   c1444     1
    I581(3)   c1593     1
    I582(2)   c1444     1
    I582(2)   c330      1
    I583(3)   c1582     1
    I583(3)   c1444     -1
    I583(3)   c535      1
    I584(3)   c1582     1
    I584(3)   c947      -1
    I584(3)   c1373     1
    I585(3)   c1582     -1
    I585(3)   c865      1
    I585(3)   c1362     1
    I586(3)   c1621     -1
    I586(3)   c865      1
    I586(3)   c1339     1
    I587(3)   c192      -1
    I587(3)   c865      1
    I587(3)   c522      1
    I588(3)   c1075     -1
    I588(3)   c865      1
    I588(3)   c1307     1
    I589(3)   c1377     -1
    I589(3)   c865      1
    I589(3)   c1426     1
    I590(3)   c1444     -1
    I590(3)   c865      1
    I590(3)   c1666     1
    I591(3)   c947      -1
    I591(3)   c865      1
    I591(3)   c1140     1
    I592(3)   c646      -1
    I592(3)   c865      1
    I592(3)   c930      1
    I593(3)   c725      -1
    I593(3)   c865      1
    I593(3)   c659      1
    I594(3)   c796      -1
    I594(3)   c865      1
    I594(3)   c1569     1
    I595(3)   c732      -1
    I595(3)   c865      1
    I595(3)   c194      1
    I596(2)   c865      1
    I596(2)   c1062     1
    I597(3)   c1582     -1
    I597(3)   c947      1
    I597(3)   c1319     1
    I598(3)   c1621     -1
    I598(3)   c947      1
    I598(3)   c731      1
    I599(3)   c192      -1
    I599(3)   c947      1
    I599(3)   c777      1
    I600(3)   c1075     -1
    I600(3)   c947      1
    I600(3)   c892      1
    I601(3)   c1377     -1
    I601(3)   c947      1
    I601(3)   c1665     1
    I602(3)   c1444     -1
    I602(3)   c947      1
    I602(3)   c662      1
    I603(3)   c646      -1
    I603(3)   c947      1
    I603(3)   c573      1
    I604(3)   c725      -1
    I604(3)   c947      1
    I604(3)   c327      1
    I605(3)   c796      -1
    I605(3)   c947      1
    I605(3)   c1099     1
    I606(3)   c732      -1
    I606(3)   c947      1
    I606(3)   c248      1
    I607(2)   c947      1
    I607(2)   c903      1
    I608(3)   c1582     -1
    I608(3)   c646      1
    I608(3)   c1517     1
    I609(3)   c1621     -1
    I609(3)   c646      1
    I609(3)   c1024     1
    I610(3)   c192      -1
    I610(3)   c646      1
    I610(3)   c1313     1
    I611(3)   c1075     -1
    I611(3)   c646      1
    I611(3)   c1379     1
    I612(3)   c1377     -1
    I612(3)   c646      1
    I612(3)   c25       1
    I613(3)   c646      1
    I613(3)   c947      -1
    I613(3)   c1094     1
    I614(3)   c646      1
    I614(3)   c725      -1
    I614(3)   c850      1
    I615(3)   c646      1
    I615(3)   c796      -1
    I615(3)   c380      1
    I616(3)   c646      1
    I616(3)   c732      -1
    I616(3)   c1060     1
    I617(2)   c646      1
    I617(2)   c1548     1
    I618(3)   c725      1
    I618(3)   c796      -1
    I618(3)   c1325     1
    I619(3)   c725      1
    I619(3)   c732      -1
    I619(3)   c583      1
    I620(2)   c725      1
    I620(2)   c1404     1
    I621(3)   c796      1
    I621(3)   c732      -1
    I621(3)   c990      1
    I622(2)   c796      1
    I622(2)   c1628     1
    I623(3)   c796      -1
    I623(3)   c732      1
    I623(3)   c377      1
    I624(2)   c732      1
    I624(2)   c311      1
    I625(2)   c1582     -1
    I625(2)   c728      1
    I626(2)   c1621     -1
    I626(2)   c945      1
    I627(2)   c6        -1
    I627(2)   c226      1
    I628(2)   c192      -1
    I628(2)   c625      1
    I629(2)   c1075     -1
    I629(2)   c374      1
    I630(2)   c1377     -1
    I630(2)   c1160     1
    I631(2)   c1444     -1
    I631(2)   c637      1
    I632(2)   c865      -1
    I632(2)   c196      1
    I633(2)   c947      -1
    I633(2)   c1251     1
    I634(2)   c646      -1
    I634(2)   c1679     1
    I635(2)   c725      -1
    I635(2)   c705      1
    I636(2)   c796      -1
    I636(2)   c1052     1
    I637(2)   c732      -1
    I637(2)   c1131     1
    I638(3)   c715      1
    I638(3)   c129      -1
    I638(3)   c124      1
    I639(1)   c591      1
    I640(2)   c129      1
    I640(2)   c1633     1
    I641(3)   c715      -1
    I641(3)   c236      1
    I641(3)   c85       1
    I642(3)   c715      1
    I642(3)   c917      -1
    I642(3)   c678      1
    I643(3)   c715      1
    I643(3)   c227      -1
    I643(3)   c1560     1
    I644(3)   c715      1
    I644(3)   c1484     -1
    I644(3)   c1171     1
    I645(3)   c715      1
    I645(3)   c1260     -1
    I645(3)   c1622     1
    I646(2)   c715      1
    I646(2)   c1096     1
    I647(3)   c715      -1
    I647(3)   c917      1
    I647(3)   c567      1
    I648(1)   c119      1
    I649(2)   c917      1
    I649(2)   c1323     1
    I650(3)   c715      -1
    I650(3)   c227      1
    I650(3)   c869      1
    I651(3)   c227      1
    I651(3)   c364      -1
    I651(3)   c119      1
    I652(3)   c715      -1
    I652(3)   c364      1
    I652(3)   c869      1
    I653(3)   c227      1
    I653(3)   c121      -1
    I653(3)   c58       1
    I654(3)   c715      -1
    I654(3)   c121      1
    I654(3)   c570      1
    I655(3)   c917      -1
    I655(3)   c121      1
    I655(3)   c978      1
    I656(3)   c715      1
    I656(3)   c364      -1
    I656(3)   c566      1
    I657(3)   c715      1
    I657(3)   c121      -1
    I657(3)   c1591     1
    I658(1)   c119      1
    I659(2)   c121      1
    I659(2)   c1577     1
    I660(3)   c715      -1
    I660(3)   c1484     1
    I660(3)   c606      1
    I661(3)   c1484     1
    I661(3)   c121      -1
    I661(3)   c509      1
    I662(3)   c715      -1
    I662(3)   c12       1
    I662(3)   c128      1
    I663(3)   c917      -1
    I663(3)   c12       1
    I663(3)   c853      1
    I664(3)   c227      -1
    I664(3)   c12       1
    I664(3)   c422      1
    I665(3)   c1484     -1
    I665(3)   c12       1
    I665(3)   c1614     1
    I666(3)   c715      1
    I666(3)   c12       -1
    I666(3)   c1018     1
    I667(1)   c586      1
    I668(3)   c715      1
    I668(3)   c255      -1
    I668(3)   c682      1
    I669(2)   c12       1
    I669(2)   c1230     1
    I670(3)   c1260     1
    I670(3)   c12       -1
    I670(3)   c1189     1
    I671(1)   c119      1
    I672(3)   c715      -1
    I672(3)   c1260     1
    I672(3)   c119      1
    I673(3)   c1260     1
    I673(3)   c255      -1
    I673(3)   c818      1
    I674(3)   c715      1
    I674(3)   c367      -1
    I674(3)   c1141     1
    I675(3)   c715      1
    I675(3)   c236      -1
    I675(3)   c634      1
    I676(3)   c715      1
    I676(3)   c250      -1
    I676(3)   c1097     1
    I677(3)   c227      -1
    I677(3)   c749      1
    I677(3)   c56       1
    I678(3)   c715      -1
    I678(3)   c749      1
    I678(3)   c996      1
    I679(3)   c1484     -1
    I679(3)   c749      1
    I679(3)   c1507     1
    I680(3)   c715      -1
    I680(3)   c255      1
    I680(3)   c571      1
    I681(1)   c119      1
    I682(3)   c255      1
    I682(3)   c749      -1
    I682(3)   c119      1
    I683(1)   c119      1
    I684(3)   c12       -1
    I684(3)   c255      1
    I684(3)   c1208     1
    I685(3)   c715      1
    I685(3)   c749      -1
    I685(3)   c266      1
    I686(2)   c367      1
    I686(2)   c1673     1
    I687(3)   c715      -1
    I687(3)   c250      1
    I687(3)   c703      1
    I688(1)   c119      1
    I689(2)   c250      1
    I689(2)   c1107     1
    I690(3)   c715      -1
    I690(3)   c711      1
    I690(3)   c167      1
    I691(3)   c715      -1
    I691(3)   c753      1
    I691(3)   c1532     1
    I692(2)   c715      -1
    I692(2)   c1185     1
    I693(2)   c236      -1
    I693(2)   c787      1
    I694(2)   c917      -1
    I694(2)   c107      1
    I695(2)   c227      -1
    I695(2)   c1468     1
    I696(2)   c1484     -1
    I696(2)   c1154     1
    I697(2)   c1260     -1
    I697(2)   c1471     1
    I698(2)   c255      -1
    I698(2)   c447      1
    I699(2)   c250      -1
    I699(2)   c1594     1
    I700(2)   c711      -1
    I700(2)   c878      1
    I701(2)   c753      -1
    I701(2)   c1241     1
    B702(2)   c429      1
    B702(2)   c438      -1
    B703(2)   c500      1
    B703(2)   c438      -1
    B704(2)   c1424     1
    B704(2)   c438      -1
    B705(2)   c1127     1
    B705(2)   c438      -1
    B706(2)   c426      1
    B706(2)   c438      -1
    B707(2)   c737      1
    B707(2)   c438      -1
    B708(2)   c24       1
    B708(2)   c438      -1
    B709(2)   c1032     1
    B709(2)   c438      -1
    B710(2)   c1167     1
    B710(2)   c438      -1
    B711(2)   c831      1
    B711(2)   c438      -1
    B712(2)   c1204     1
    B712(2)   c438      -1
    B713(2)   c791      1
    B713(2)   c438      -1
    B714(2)   c1453     1
    B714(2)   c438      -1
    B715(2)   c1643     1
    B715(2)   c438      -1
    B716(2)   c1551     1
    B716(2)   c438      -1
    B717(2)   c552      1
    B717(2)   c438      -1
    B718(2)   c771      1
    B718(2)   c438      -1
    B719(2)   c485      1
    B719(2)   c438      -1
    B720(2)   c1039     1
    B720(2)   c438      -1
    B721(2)   c272      1
    B721(2)   c438      -1
    B722(2)   c824      1
    B722(2)   c438      -1
    B723(2)   c1536     1
    B723(2)   c438      -1
    B724(2)   c393      1
    B724(2)   c438      -1
    B725(2)   c536      1
    B725(2)   c438      -1
    B726(2)   c94       1
    B726(2)   c438      -1
    B727(2)   c297      1
    B727(2)   c438      -1
    B728(2)   c228      1
    B728(2)   c438      -1
    B729(2)   c547      1
    B729(2)   c438      -1
    B730(2)   c1051     1
    B730(2)   c438      -1
    B731(2)   c180      1
    B731(2)   c438      -1
    B732(2)   c910      1
    B732(2)   c438      -1
    B733(2)   c1599     1
    B733(2)   c438      -1
    B734(2)   c1638     1
    B734(2)   c438      -1
    B735(2)   c314      1
    B735(2)   c438      -1
    B736(2)   c912      1
    B736(2)   c438      -1
    B737(2)   c433      1
    B737(2)   c438      -1
    B738(2)   c160      1
    B738(2)   c438      -1
    B739(2)   c529      1
    B739(2)   c438      -1
    B740(2)   c1043     1
    B740(2)   c438      -1
    B741(2)   c144      1
    B741(2)   c438      -1
    B742(2)   c977      1
    B742(2)   c438      -1
    B743(2)   c1252     1
    B743(2)   c438      -1
    B744(2)   c1522     1
    B744(2)   c438      -1
    B745(2)   c63       1
    B745(2)   c438      -1
    B746(2)   c1120     1
    B746(2)   c438      -1
    B747(2)   c823      1
    B747(2)   c438      -1
    B748(2)   c252      1
    B748(2)   c438      -1
    B749(2)   c1036     1
    B749(2)   c438      -1
    B750(2)   c1090     1
    B750(2)   c438      -1
    B751(2)   c750      1
    B751(2)   c438      -1
    B752(2)   c499      1
    B752(2)   c438      -1
    B753(2)   c1178     1
    B753(2)   c438      -1
    B754(2)   c1105     1
    B754(2)   c438      -1
    B755(2)   c966      1
    B755(2)   c438      -1
    B756(2)   c487      1
    B756(2)   c438      -1
    B757(2)   c486      1
    B757(2)   c438      -1
    B758(2)   c1355     1
    B758(2)   c438      -1
    B759(2)   c942      1
    B759(2)   c438      -1
    B760(2)   c74       1
    B760(2)   c438      -1
    B761(2)   c600      1
    B761(2)   c438      -1
    B762(2)   c780      1
    B762(2)   c438      -1
    B763(2)   c1085     1
    B763(2)   c438      -1
    MARKER    'MARKER'                 'INTEND'
    C764(1)   c438      -1
    C765(1)   c1545     -1
    MARKER    'MARKER'                 'INTORG'
    B766(2)   c426      1
    B766(2)   c408      -1
    B767(2)   c1536     1
    B767(2)   c408      -1
    MARKER    'MARKER'                 'INTEND'
    C768(1)   c408      -1
    MARKER    'MARKER'                 'INTORG'
    B769(2)   c24       1
    B769(2)   c1050     -1
    B770(2)   c1490     1
    B770(2)   c1050     -1
    MARKER    'MARKER'                 'INTEND'
    C771(1)   c1050     -1
    MARKER    'MARKER'                 'INTORG'
    B772(2)   c410      1
    B772(2)   c1006     -1
    B773(2)   c1032     1
    B773(2)   c1006     -1
    MARKER    'MARKER'                 'INTEND'
    C774(1)   c1006     -1
    MARKER    'MARKER'                 'INTORG'
    B775(2)   c94       1
    B775(2)   c1682     -1
    B776(2)   c297      1
    B776(2)   c1682     -1
    B777(2)   c180      1
    B777(2)   c1682     -1
    MARKER    'MARKER'                 'INTEND'
    C778(1)   c1682     -1
    MARKER    'MARKER'                 'INTORG'
    B779(2)   c831      1
    B779(2)   c373      -1
    MARKER    'MARKER'                 'INTEND'
    C780(1)   c373      -1
    MARKER    'MARKER'                 'INTORG'
    B781(2)   c809      1
    B781(2)   c852      -1
    B782(2)   c1421     1
    B782(2)   c852      -1
    B783(2)   c599      1
    B783(2)   c852      -1
    B784(2)   c1201     1
    B784(2)   c852      -1
    B785(2)   c1445     1
    B785(2)   c852      -1
    B786(2)   c287      1
    B786(2)   c852      -1
    B787(2)   c48       1
    B787(2)   c852      -1
    B788(2)   c1443     1
    B788(2)   c852      -1
    B789(2)   c512      1
    B789(2)   c852      -1
    B790(2)   c1652     1
    B790(2)   c852      -1
    B791(2)   c1671     1
    B791(2)   c852      -1
    B792(2)   c198      1
    B792(2)   c265      -1
    B793(2)   c270      1
    B793(2)   c265      -1
    B794(2)   c528      1
    B794(2)   c265      -1
    B795(2)   c269      1
    B795(2)   c265      -1
    B796(2)   c1544     1
    B796(2)   c265      -1
    B797(2)   c1346     1
    B797(2)   c265      -1
    B798(2)   c1192     1
    B798(2)   c265      -1
    B799(2)   c1602     1
    B799(2)   c265      -1
    B800(2)   c687      1
    B800(2)   c265      -1
    B801(2)   c1315     1
    B801(2)   c265      -1
    B802(2)   c307      1
    B802(2)   c265      -1
    B803(2)   c1382     1
    B803(2)   c1691     -1
    B804(2)   c648      1
    B804(2)   c1431     -1
    B805(2)   c1603     1
    B805(2)   c43       -1
    B806(2)   c166      1
    B806(2)   c965      -1
    B807(2)   c1406     1
    B807(2)   c1492     -1
    B808(2)   c1400     1
    B808(2)   c994      -1
    B809(2)   c1045     1
    B809(2)   c1137     -1
    B810(2)   c1295     1
    B810(2)   c1137     -1
    B811(2)   c819      1
    B811(2)   c1137     -1
    B812(2)   c906      1
    B812(2)   c1137     -1
    B813(2)   c245      1
    B813(2)   c1137     -1
    B814(2)   c999      1
    B814(2)   c1137     -1
    B815(2)   c335      1
    B815(2)   c1137     -1
    B816(2)   c1648     1
    B816(2)   c1137     -1
    B817(2)   c1272     1
    B817(2)   c645      -1
    B818(2)   c1044     1
    B818(2)   c645      -1
    B819(2)   c1555     1
    B819(2)   c645      -1
    B820(2)   c830      1
    B820(2)   c645      -1
    B821(2)   c203      1
    B821(2)   c645      -1
    B822(2)   c1556     1
    B822(2)   c645      -1
    B823(2)   c1690     1
    B823(2)   c645      -1
    B824(2)   c1629     1
    B824(2)   c645      -1
    B825(2)   c1065     1
    B825(2)   c38       -1
    B826(2)   c293      1
    B826(2)   c38       -1
    B827(2)   c267      1
    B827(2)   c1165     -1
    B828(2)   c1700     1
    B828(2)   c1165     -1
    B829(2)   c1088     1
    B829(2)   c1165     -1
    B830(2)   c206      1
    B830(2)   c1165     -1
    B831(2)   c626      1
    B831(2)   c1229     -1
    B832(2)   c1040     1
    B832(2)   c1229     -1
    B833(2)   c420      1
    B833(2)   c1229     -1
    B834(2)   c1048     1
    B834(2)   c1229     -1
    B835(2)   c280      1
    B835(2)   c1229     -1
    B836(2)   c453      1
    B836(2)   c1207     -1
    B837(2)   c1027     1
    B837(2)   c1207     -1
    B838(2)   c657      1
    B838(2)   c1207     -1
    B839(2)   c1670     1
    B839(2)   c65       -1
    B840(2)   c1059     1
    B840(2)   c65       -1
    B841(2)   c267      1
    B841(2)   c1442     -1
    B842(2)   c1088     1
    B842(2)   c1442     -1
    B843(2)   c1078     1
    B843(2)   c1442     -1
    B844(2)   c999      1
    B844(2)   c802      -1
    B845(2)   c1556     1
    B845(2)   c691      -1
    B846(2)   c741      1
    B846(2)   c290      -1
    B847(2)   c1478     1
    B847(2)   c1157     -1
    B848(2)   c974      1
    B848(2)   c1157     -1
    B849(2)   c361      1
    B849(2)   c1157     -1
    B850(2)   c974      1
    B850(2)   c1481     -1
    B851(2)   c1164     1
    B851(2)   c1481     -1
    B852(2)   c1008     1
    B852(2)   c1481     -1
    B853(2)   c1320     1
    B853(2)   c1481     -1
    B854(2)   c109      1
    B854(2)   c1481     -1
    B855(2)   c1320     1
    B855(2)   c1636     -1
    B856(2)   c950      1
    B856(2)   c1321     -1
    B857(2)   c463      1
    B857(2)   c1023     -1
    B858(2)   c1486     1
    B858(2)   c1145     -1
    B859(2)   c1407     1
    B859(2)   c1091     -1
    B860(2)   c1361     1
    B860(2)   c1624     -1
    B861(2)   c92       1
    B861(2)   c1624     -1
    B862(2)   c909      1
    B862(2)   c1624     -1
    B863(2)   c371      1
    B863(2)   c1624     -1
    B864(2)   c1318     1
    B864(2)   c1624     -1
    B865(2)   c1363     1
    B865(2)   c1624     -1
    B866(2)   c484      1
    B866(2)   c1624     -1
    B867(2)   c1363     1
    B867(2)   c1386     -1
    B868(2)   c1437     1
    B868(2)   c928      -1
    B869(2)   c1609     1
    B869(2)   c235      -1
    B870(2)   c644      1
    B870(2)   c1547     -1
    B871(2)   c561      1
    B871(2)   c1305     -1
    B872(2)   c1037     1
    B872(2)   c551      -1
    B873(2)   c500      1
    B873(2)   c551      -1
    B874(2)   c1424     1
    B874(2)   c551      -1
    B875(2)   c1127     1
    B875(2)   c551      -1
    B876(2)   c1314     1
    B876(2)   c551      -1
    B877(2)   c1037     1
    B877(2)   c1686     -1
    B878(2)   c1424     1
    B878(2)   c1686     -1
    B879(2)   c1299     1
    B879(2)   c1686     -1
    B880(2)   c112      1
    B880(2)   c1686     -1
    B881(2)   c1413     1
    B881(2)   c1686     -1
    B882(2)   c1314     1
    B882(2)   c1686     -1
    B883(2)   c1411     1
    B883(2)   c1686     -1
    B884(2)   c426      1
    B884(2)   c375      -1
    B885(2)   c453      1
    B885(2)   c515      -1
    B886(2)   c1267     1
    B886(2)   c515      -1
    B887(2)   c1027     1
    B887(2)   c515      -1
    B888(2)   c453      1
    B888(2)   c1068     -1
    B889(2)   c933      1
    B889(2)   c1640     -1
    B890(2)   c970      1
    B890(2)   c822      -1
    B891(2)   c275      1
    B891(2)   c1173     -1
    B892(2)   c971      1
    B892(2)   c1173     -1
    B893(2)   c1302     1
    B893(2)   c1173     -1
    B894(2)   c1674     1
    B894(2)   c1173     -1
    B895(2)   c1502     1
    B895(2)   c696      -1
    B896(2)   c1144     1
    B896(2)   c9        -1
    B897(2)   c980      1
    B897(2)   c9        -1
    B898(2)   c773      1
    B898(2)   c9        -1
    B899(2)   c421      1
    B899(2)   c9        -1
    B900(2)   c1265     1
    B900(2)   c9        -1
    B901(2)   c598      1
    B901(2)   c9        -1
    B902(2)   c1487     1
    B902(2)   c9        -1
    B903(2)   c497      1
    B903(2)   c9        -1
    B904(2)   c661      1
    B904(2)   c1187     -1
    B905(2)   c980      1
    B905(2)   c1187     -1
    B906(2)   c773      1
    B906(2)   c1187     -1
    B907(2)   c1218     1
    B907(2)   c1187     -1
    B908(2)   c1487     1
    B908(2)   c1187     -1
    B909(2)   c1218     1
    B909(2)   c472      -1
    B910(2)   c1488     1
    B910(2)   c955      -1
    B911(2)   c1508     1
    B911(2)   c1269     -1
    B912(2)   c179      1
    B912(2)   c1293     -1
    B913(2)   c1274     1
    B913(2)   c692      -1
    B914(2)   c1156     1
    B914(2)   c117      -1
    B915(2)   c11       1
    B915(2)   c205      -1
    B916(2)   c710      1
    B916(2)   c1401     -1
    B917(2)   c997      1
    B917(2)   c836      -1
    B918(2)   c611      1
    B918(2)   c10       -1
    B919(2)   c1273     1
    B919(2)   c323      -1
    B920(2)   c1267     1
    B920(2)   c1680     -1
    B921(2)   c1167     1
    B921(2)   c674      -1
    B922(2)   c1039     1
    B922(2)   c674      -1
    B923(2)   c1683     1
    B923(2)   c102      -1
    B924(2)   c1384     1
    B924(2)   c1353     -1
    B925(2)   c1039     1
    B925(2)   c1353     -1
    B926(2)   c272      1
    B926(2)   c1353     -1
    B927(2)   c824      1
    B927(2)   c1353     -1
    B928(2)   c756      1
    B928(2)   c1353     -1
    B929(2)   c1338     1
    B929(2)   c1353     -1
    B930(2)   c79       1
    B930(2)   c1353     -1
    B931(2)   c393      1
    B931(2)   c1353     -1
    B932(2)   c655      1
    B932(2)   c1353     -1
    B933(2)   c1536     1
    B933(2)   c1422     -1
    B934(2)   c1490     1
    B934(2)   c201      -1
    B935(2)   c1027     1
    B935(2)   c722      -1
    B936(2)   c271      1
    B936(2)   c944      -1
    B937(2)   c89       1
    B937(2)   c339      -1
    B938(2)   c51       1
    B938(2)   c1457     -1
    B939(2)   c1247     1
    B939(2)   c1501     -1
    B940(2)   c727      1
    B940(2)   c1111     -1
    B941(2)   c413      1
    B941(2)   c1177     -1
    B942(2)   c197      1
    B942(2)   c1035     -1
    B943(2)   c744      1
    B943(2)   c1552     -1
    B944(2)   c819      1
    B944(2)   c862      -1
    B945(2)   c1555     1
    B945(2)   c1231     -1
    B946(2)   c1226     1
    B946(2)   c1583     -1
    B947(2)   c1451     1
    B947(2)   c1583     -1
    B948(2)   c14       1
    B948(2)   c1583     -1
    B949(2)   c325      1
    B949(2)   c834      -1
    B950(2)   c1243     1
    B950(2)   c519      -1
    B951(2)   c505      1
    B951(2)   c519      -1
    B952(2)   c1676     1
    B952(2)   c519      -1
    B953(2)   c897      1
    B953(2)   c519      -1
    B954(2)   c543      1
    B954(2)   c605      -1
    B955(2)   c1304     1
    B955(2)   c605      -1
    B956(2)   c1262     1
    B956(2)   c605      -1
    B957(2)   c897      1
    B957(2)   c605      -1
    B958(2)   c390      1
    B958(2)   c346      -1
    B959(2)   c989      1
    B959(2)   c1530     -1
    B960(2)   c505      1
    B960(2)   c115      -1
    B961(2)   c159      1
    B961(2)   c849      -1
    B962(2)   c1618     1
    B962(2)   c1122     -1
    B963(2)   c403      1
    B963(2)   c1153     -1
    B964(2)   c1461     1
    B964(2)   c738      -1
    B965(2)   c801      1
    B965(2)   c87       -1
    B966(2)   c652      1
    B966(2)   c87       -1
    B967(2)   c83       1
    B967(2)   c87       -1
    B968(2)   c1574     1
    B968(2)   c87       -1
    B969(2)   c378      1
    B969(2)   c87       -1
    B970(2)   c801      1
    B970(2)   c1158     -1
    B971(2)   c652      1
    B971(2)   c1158     -1
    B972(2)   c83       1
    B972(2)   c1158     -1
    B973(2)   c378      1
    B973(2)   c1158     -1
    B974(2)   c1275     1
    B974(2)   c1195     -1
    B975(2)   c27       1
    B975(2)   c1195     -1
    B976(2)   c76       1
    B976(2)   c1195     -1
    B977(2)   c378      1
    B977(2)   c1195     -1
    B978(2)   c775      1
    B978(2)   c19       -1
    B979(2)   c882      1
    B979(2)   c972      -1
    B980(2)   c652      1
    B980(2)   c1148     -1
    B981(2)   c1595     1
    B981(2)   c641      -1
    B982(2)   c893      1
    B982(2)   c300      -1
    B983(2)   c320      1
    B983(2)   c370      -1
    B984(2)   c805      1
    B984(2)   c1297     -1
    B985(2)   c1121     1
    B985(2)   c1701     -1
    B986(2)   c296      1
    B986(2)   c1701     -1
    B987(2)   c262      1
    B987(2)   c1701     -1
    B988(2)   c1116     1
    B988(2)   c1701     -1
    B989(2)   c132      1
    B989(2)   c1701     -1
    B990(2)   c106      1
    B990(2)   c1701     -1
    B991(2)   c1662     1
    B991(2)   c844      -1
    B992(2)   c474      1
    B992(2)   c1333     -1
    B993(2)   c434      1
    B993(2)   c315      -1
    B994(2)   c1193     1
    B994(2)   c540      -1
    B995(2)   c938      1
    B995(2)   c784      -1
    B996(2)   c1497     1
    B996(2)   c784      -1
    B997(2)   c70       1
    B997(2)   c784      -1
    B998(2)   c1219     1
    B998(2)   c784      -1
    B999(2)   c946      1
    B999(2)   c784      -1
    B1000(2)  c938      1
    B1000(2)  c1485     -1
    B1001(2)  c1497     1
    B1001(2)  c1485     -1
    B1002(2)  c70       1
    B1002(2)  c1485     -1
    B1003(2)  c946      1
    B1003(2)  c1485     -1
    B1004(2)  c1146     1
    B1004(2)  c576      -1
    B1005(2)  c951      1
    B1005(2)  c576      -1
    B1006(2)  c1554     1
    B1006(2)  c576      -1
    B1007(2)  c946      1
    B1007(2)  c576      -1
    B1008(2)  c1322     1
    B1008(2)  c16       -1
    B1009(2)  c1456     1
    B1009(2)  c1390     -1
    B1010(2)  c1497     1
    B1010(2)  c469      -1
    B1011(2)  c17       1
    B1011(2)  c1368     -1
    B1012(2)  c1181     1
    B1012(2)  c794      -1
    B1013(2)  c1611     1
    B1013(2)  c1585     -1
    B1014(2)  c363      1
    B1014(2)  c324      -1
    B1015(2)  c362      1
    B1015(2)  c936      -1
    B1016(2)  c234      1
    B1016(2)  c936      -1
    B1017(2)  c1239     1
    B1017(2)  c936      -1
    B1018(2)  c1130     1
    B1018(2)  c936      -1
    B1019(2)  c398      1
    B1019(2)  c936      -1
    B1020(2)  c1118     1
    B1020(2)  c936      -1
    B1021(2)  c1473     1
    B1021(2)  c936      -1
    B1022(2)  c1625     1
    B1022(2)  c936      -1
    B1023(2)  c276      1
    B1023(2)  c936      -1
    B1024(2)  c1620     1
    B1024(2)  c936      -1
    B1025(2)  c1366     1
    B1025(2)  c936      -1
    B1026(2)  c811      1
    B1026(2)  c936      -1
    B1027(2)  c826      1
    B1027(2)  c936      -1
    B1028(2)  c1168     1
    B1028(2)  c936      -1
    B1029(2)  c549      1
    B1029(2)  c937      -1
    B1030(2)  c446      1
    B1030(2)  c0        -1
    B1031(2)  c565      1
    B1031(2)  c1669     -1
    B1032(2)  c1375     1
    B1032(2)  c1073     -1
    B1033(2)  c1        1
    B1033(2)  c1504     -1
    B1034(2)  c75       1
    B1034(2)  c1061     -1
    B1035(2)  c214      1
    B1035(2)  c1369     -1
    B1036(2)  c1025     1
    B1036(2)  c1562     -1
    B1037(2)  c64       1
    B1037(2)  c1206     -1
    B1038(2)  c209      1
    B1038(2)  c1093     -1
    B1039(2)  c533      1
    B1039(2)  c1007     -1
    B1040(2)  c647      1
    B1040(2)  c490      -1
    B1041(2)  c988      1
    B1041(2)  c490      -1
    B1042(2)  c1558     1
    B1042(2)  c490      -1
    B1043(2)  c50       1
    B1043(2)  c490      -1
    B1044(2)  c614      1
    B1044(2)  c490      -1
    B1045(2)  c554      1
    B1045(2)  c490      -1
    B1046(2)  c817      1
    B1046(2)  c490      -1
    B1047(2)  c1538     1
    B1047(2)  c490      -1
    B1048(2)  c808      1
    B1048(2)  c490      -1
    B1049(2)  c1151     1
    B1049(2)  c490      -1
    B1050(2)  c1699     1
    B1050(2)  c490      -1
    B1051(2)  c902      1
    B1051(2)  c490      -1
    B1052(2)  c671      1
    B1052(2)  c490      -1
    B1053(2)  c1703     1
    B1053(2)  c490      -1
    B1054(2)  c349      1
    B1054(2)  c490      -1
    B1055(2)  c1162     1
    B1055(2)  c490      -1
    B1056(2)  c1448     1
    B1056(2)  c490      -1
    B1057(2)  c665      1
    B1057(2)  c490      -1
    B1058(2)  c163      1
    B1058(2)  c490      -1
    B1059(2)  c1631     1
    B1059(2)  c490      -1
    B1060(2)  c1663     1
    B1060(2)  c490      -1
    B1061(2)  c782      1
    B1061(2)  c490      -1
    B1062(2)  c1266     1
    B1062(2)  c490      -1
    B1063(2)  c1447     1
    B1063(2)  c490      -1
    B1064(2)  c123      1
    B1064(2)  c490      -1
    B1065(2)  c755      1
    B1065(2)  c490      -1
    B1066(2)  c560      1
    B1066(2)  c490      -1
    B1067(2)  c991      1
    B1067(2)  c490      -1
    B1068(2)  c925      1
    B1068(2)  c490      -1
    B1069(2)  c30       1
    B1069(2)  c490      -1
    B1070(2)  c803      1
    B1070(2)  c490      -1
    B1071(2)  c456      1
    B1071(2)  c490      -1
    B1072(2)  c1152     1
    B1072(2)  c490      -1
    B1073(2)  c399      1
    B1073(2)  c490      -1
    B1074(2)  c976      1
    B1074(2)  c490      -1
    B1075(2)  c283      1
    B1075(2)  c490      -1
    B1076(2)  c720      1
    B1076(2)  c490      -1
    B1077(2)  c589      1
    B1077(2)  c490      -1
    B1078(2)  c440      1
    B1078(2)  c490      -1
    B1079(2)  c1436     1
    B1079(2)  c490      -1
    B1080(2)  c579      1
    B1080(2)  c490      -1
    B1081(2)  c1475     1
    B1081(2)  c490      -1
    B1082(2)  c1200     1
    B1082(2)  c490      -1
    B1083(2)  c693      1
    B1083(2)  c490      -1
    B1084(2)  c1449     1
    B1084(2)  c490      -1
    B1085(2)  c1483     1
    B1085(2)  c490      -1
    B1086(2)  c261      1
    B1086(2)  c490      -1
    B1087(2)  c34       1
    B1087(2)  c490      -1
    B1088(2)  c963      1
    B1088(2)  c490      -1
    B1089(2)  c798      1
    B1089(2)  c490      -1
    B1090(2)  c1280     1
    B1090(2)  c490      -1
    B1091(2)  c911      1
    B1091(2)  c490      -1
    B1092(2)  c1418     1
    B1092(2)  c490      -1
    B1093(2)  c301      1
    B1093(2)  c490      -1
    B1094(2)  c1300     1
    B1094(2)  c490      -1
    B1095(2)  c1069     1
    B1095(2)  c490      -1
    B1096(2)  c66       1
    B1096(2)  c490      -1
    MARKER    'MARKER'                 'INTEND'
    C1097(1)  c490      -1
    C1098(1)  c388      -1
    MARKER    'MARKER'                 'INTORG'
    B1099(2)  c395      1
    B1099(2)  c22       -1
    B1100(2)  c1261     1
    B1100(2)  c22       -1
    B1101(2)  c1654     1
    B1101(2)  c22       -1
    B1102(2)  c537      1
    B1102(2)  c22       -1
    B1103(2)  c1359     1
    B1103(2)  c22       -1
    B1104(2)  c1224     1
    B1104(2)  c22       -1
    B1105(2)  c1182     1
    B1105(2)  c22       -1
    B1106(2)  c985      1
    B1106(2)  c22       -1
    B1107(2)  c793      1
    B1107(2)  c22       -1
    B1108(2)  c1378     1
    B1108(2)  c22       -1
    B1109(2)  c1244     1
    B1109(2)  c1462     -1
    B1110(2)  c841      1
    B1110(2)  c1462     -1
    B1111(2)  c1170     1
    B1111(2)  c1462     -1
    B1112(2)  c412      1
    B1112(2)  c1462     -1
    B1113(2)  c1086     1
    B1113(2)  c1462     -1
    B1114(2)  c807      1
    B1114(2)  c1462     -1
    B1115(2)  c542      1
    B1115(2)  c1462     -1
    B1116(2)  c880      1
    B1116(2)  c1462     -1
    B1117(2)  c890      1
    B1117(2)  c1462     -1
    B1118(2)  c210      1
    B1118(2)  c1462     -1
    B1119(2)  c1216     1
    B1119(2)  c1462     -1
    B1120(2)  c239      1
    B1120(2)  c1462     -1
    B1121(2)  c383      1
    B1121(2)  c1462     -1
    B1122(2)  c237      1
    B1122(2)  c666      -1
    B1123(2)  c799      1
    B1123(2)  c1641     -1
    B1124(2)  c1331     1
    B1124(2)  c1641     -1
    B1125(2)  c1581     1
    B1125(2)  c1641     -1
    B1126(2)  c176      1
    B1126(2)  c1641     -1
    B1127(2)  c934      1
    B1127(2)  c521      -1
    B1128(2)  c1309     1
    B1128(2)  c521      -1
    B1129(2)  c541      1
    B1129(2)  c521      -1
    B1130(2)  c1438     1
    B1130(2)  c521      -1
    B1131(2)  c171      1
    B1131(2)  c1650     -1
    B1132(2)  c800      1
    B1132(2)  c1650     -1
    B1133(2)  c943      1
    B1133(2)  c1650     -1
    B1134(2)  c1089     1
    B1134(2)  c1650     -1
    B1135(2)  c342      1
    B1135(2)  c1650     -1
    B1136(2)  c616      1
    B1136(2)  c1650     -1
    B1137(2)  c1367     1
    B1137(2)  c1650     -1
    B1138(2)  c708      1
    B1138(2)  c1650     -1
    B1139(2)  c1254     1
    B1139(2)  c1650     -1
    B1140(2)  c716      1
    B1140(2)  c1528     -1
    B1141(2)  c1496     1
    B1141(2)  c1528     -1
    B1142(2)  c1694     1
    B1142(2)  c995      -1
    B1143(2)  c622      1
    B1143(2)  c995      -1
    B1144(2)  c766      1
    B1144(2)  c995      -1
    B1145(2)  c875      1
    B1145(2)  c995      -1
    B1146(2)  c1317     1
    B1146(2)  c995      -1
    B1147(2)  c856      1
    B1147(2)  c995      -1
    B1148(2)  c1102     1
    B1148(2)  c995      -1
    B1149(2)  c726      1
    B1149(2)  c1327     -1
    B1150(2)  c913      1
    B1150(2)  c1327     -1
    B1151(2)  c886      1
    B1151(2)  c1327     -1
    B1152(2)  c1113     1
    B1152(2)  c1327     -1
    B1153(2)  c987      1
    B1153(2)  c1327     -1
    B1154(2)  c164      1
    B1154(2)  c1327     -1
    B1155(2)  c1257     1
    B1155(2)  c1327     -1
    B1156(2)  c1573     1
    B1156(2)  c1327     -1
    B1157(2)  c59       1
    B1157(2)  c1327     -1
    B1158(2)  c919      1
    B1158(2)  c837      -1
    B1159(2)  c610      1
    B1159(2)  c837      -1
    B1160(2)  c379      1
    B1160(2)  c837      -1
    B1161(2)  c165      1
    B1161(2)  c837      -1
    B1162(2)  c1352     1
    B1162(2)  c837      -1
    B1163(2)  c1584     1
    B1163(2)  c837      -1
    B1164(2)  c54       1
    B1164(2)  c837      -1
    B1165(2)  c1337     1
    B1165(2)  c837      -1
    B1166(2)  c84       1
    B1166(2)  c837      -1
    B1167(2)  c778      1
    B1167(2)  c868      -1
    B1168(2)  c162      1
    B1168(2)  c1417     -1
    B1169(2)  c525      1
    B1169(2)  c969      -1
    B1170(2)  c745      1
    B1170(2)  c969      -1
    B1171(2)  c1250     1
    B1171(2)  c969      -1
    B1172(2)  c613      1
    B1172(2)  c969      -1
    B1173(2)  c1334     1
    B1173(2)  c969      -1
    B1174(2)  c1258     1
    B1174(2)  c969      -1
    B1175(2)  c488      1
    B1175(2)  c969      -1
    B1176(2)  c975      1
    B1176(2)  c969      -1
    B1177(2)  c735      1
    B1177(2)  c60       -1
    B1178(2)  c322      1
    B1178(2)  c788      -1
    B1179(2)  c1356     1
    B1179(2)  c923      -1
    B1180(2)  c435      1
    B1180(2)  c111      -1
    B1181(2)  c175      1
    B1181(2)  c623      -1
    B1182(2)  c668      1
    B1182(2)  c1568     -1
    B1183(2)  c1289     1
    B1183(2)  c624      -1
    B1184(2)  c1284     1
    B1184(2)  c1398     -1
    B1185(2)  c1017     1
    B1185(2)  c1222     -1
    B1186(2)  c908      1
    B1186(2)  c1101     -1
    B1187(2)  c99       1
    B1187(2)  c1101     -1
    B1188(2)  c1213     1
    B1188(2)  c1101     -1
    B1189(2)  c518      1
    B1189(2)  c1101     -1
    B1190(2)  c427      1
    B1190(2)  c1101     -1
    B1191(2)  c1348     1
    B1191(2)  c1101     -1
    B1192(2)  c101      1
    B1192(2)  c502      -1
    B1193(2)  c1202     1
    B1193(2)  c757      -1
    B1194(2)  c454      1
    B1194(2)  c1527     -1
    B1195(2)  c139      1
    B1195(2)  c1135     -1
    B1196(2)  c1566     1
    B1196(2)  c1003     -1
    B1197(2)  c1626     1
    B1197(2)  c563      -1
    B1198(2)  c1169     1
    B1198(2)  c563      -1
    B1199(2)  c436      1
    B1199(2)  c563      -1
    B1200(2)  c482      1
    B1200(2)  c1298     -1
    B1201(2)  c1518     1
    B1201(2)  c1256     -1
    B1202(2)  c193      1
    B1202(2)  c448      -1
    B1203(2)  c281      1
    B1203(2)  c493      -1
    B1204(2)  c514      1
    B1204(2)  c465      -1
    B1205(2)  c1393     1
    B1205(2)  c1155     -1
    B1206(2)  c953      1
    B1206(2)  c1524     -1
    B1207(2)  c389      1
    B1207(2)  c1100     -1
    B1208(2)  c504      1
    B1208(2)  c1100     -1
    B1209(2)  c285      1
    B1209(2)  c686      -1
    B1210(2)  c1607     1
    B1210(2)  c734      -1
    B1211(2)  c1464     1
    B1211(2)  c531      -1
    B1212(2)  c621      1
    B1212(2)  c1495     -1
    B1213(2)  c1416     1
    B1213(2)  c1495     -1
    B1214(2)  c992      1
    B1214(2)  c1495     -1
    B1215(2)  c806      1
    B1215(2)  c1495     -1
    B1216(2)  c670      1
    B1216(2)  c1495     -1
    B1217(2)  c695      1
    B1217(2)  c1495     -1
    B1218(2)  c141      1
    B1218(2)  c1495     -1
    B1219(2)  c1188     1
    B1219(2)  c1495     -1
    B1220(2)  c332      1
    B1220(2)  c249      -1
    B1221(2)  c319      1
    B1221(2)  c815      -1
    B1222(2)  c329      1
    B1222(2)  c957      -1
    B1223(2)  c96       1
    B1223(2)  c400      -1
    B1224(2)  c246      1
    B1224(2)  c1221     -1
    B1225(2)  c544      1
    B1225(2)  c557      -1
    B1226(2)  c313      1
    B1226(2)  c907      -1
    B1227(2)  c122      1
    B1227(2)  c1212     -1
    B1228(2)  c1129     1
    B1228(2)  c1593     -1
    B1229(2)  c669      1
    B1229(2)  c330      -1
    B1230(2)  c1139     1
    B1230(2)  c535      -1
    B1231(2)  c40       1
    B1231(2)  c1373     -1
    B1232(2)  c53       1
    B1232(2)  c1362     -1
    B1233(2)  c4        1
    B1233(2)  c1362     -1
    B1234(2)  c221      1
    B1234(2)  c1362     -1
    B1235(2)  c1033     1
    B1235(2)  c1362     -1
    B1236(2)  c1612     1
    B1236(2)  c1362     -1
    B1237(2)  c1276     1
    B1237(2)  c1362     -1
    B1238(2)  c1328     1
    B1238(2)  c1362     -1
    B1239(2)  c1030     1
    B1239(2)  c1362     -1
    B1240(2)  c1316     1
    B1240(2)  c1362     -1
    B1241(2)  c1277     1
    B1241(2)  c1362     -1
    B1242(2)  c638      1
    B1242(2)  c1362     -1
    B1243(2)  c414      1
    B1243(2)  c1339     -1
    B1244(2)  c1596     1
    B1244(2)  c522      -1
    B1245(2)  c1110     1
    B1245(2)  c1307     -1
    B1246(2)  c718      1
    B1246(2)  c1426     -1
    B1247(2)  c1590     1
    B1247(2)  c1666     -1
    B1248(2)  c1000     1
    B1248(2)  c1140     -1
    B1249(2)  c150      1
    B1249(2)  c930      -1
    B1250(2)  c155      1
    B1250(2)  c659      -1
    B1251(2)  c629      1
    B1251(2)  c1569     -1
    B1252(2)  c1049     1
    B1252(2)  c194      -1
    B1253(2)  c303      1
    B1253(2)  c1062     -1
    B1254(2)  c1306     1
    B1254(2)  c1319     -1
    B1255(2)  c473      1
    B1255(2)  c1319     -1
    B1256(2)  c1001     1
    B1256(2)  c1319     -1
    B1257(2)  c182      1
    B1257(2)  c1319     -1
    B1258(2)  c1268     1
    B1258(2)  c1319     -1
    B1259(2)  c904      1
    B1259(2)  c1319     -1
    B1260(2)  c1435     1
    B1260(2)  c1319     -1
    B1261(2)  c47       1
    B1261(2)  c1319     -1
    B1262(2)  c1350     1
    B1262(2)  c731      -1
    B1263(2)  c709      1
    B1263(2)  c777      -1
    B1264(2)  c704      1
    B1264(2)  c892      -1
    B1265(2)  c1056     1
    B1265(2)  c1665     -1
    B1266(2)  c253      1
    B1266(2)  c662      -1
    B1267(2)  c931      1
    B1267(2)  c573      -1
    B1268(2)  c790      1
    B1268(2)  c327      -1
    B1269(2)  c861      1
    B1269(2)  c1099     -1
    B1270(2)  c585      1
    B1270(2)  c248      -1
    B1271(2)  c1516     1
    B1271(2)  c903      -1
    B1272(2)  c556      1
    B1272(2)  c1517     -1
    B1273(2)  c781      1
    B1273(2)  c1517     -1
    B1274(2)  c321      1
    B1274(2)  c1517     -1
    B1275(2)  c615      1
    B1275(2)  c1517     -1
    B1276(2)  c1520     1
    B1276(2)  c1517     -1
    B1277(2)  c1064     1
    B1277(2)  c1024     -1
    B1278(2)  c860      1
    B1278(2)  c1313     -1
    B1279(2)  c748      1
    B1279(2)  c1379     -1
    B1280(2)  c1004     1
    B1280(2)  c25       -1
    B1281(2)  c763      1
    B1281(2)  c1094     -1
    B1282(2)  c658      1
    B1282(2)  c850      -1
    B1283(2)  c381      1
    B1283(2)  c380      -1
    B1284(2)  c1658     1
    B1284(2)  c1060     -1
    B1285(2)  c1396     1
    B1285(2)  c1548     -1
    B1286(2)  c8        1
    B1286(2)  c1325     -1
    B1287(2)  c1330     1
    B1287(2)  c583      -1
    B1288(2)  c460      1
    B1288(2)  c1404     -1
    B1289(2)  c295      1
    B1289(2)  c990      -1
    B1290(2)  c1194     1
    B1290(2)  c1628     -1
    B1291(2)  c835      1
    B1291(2)  c377      -1
    B1292(2)  c1630     1
    B1292(2)  c311      -1
    B1293(2)  c921      1
    B1293(2)  c728      -1
    B1294(2)  c760      1
    B1294(2)  c728      -1
    B1295(2)  c592      1
    B1295(2)  c728      -1
    B1296(2)  c879      1
    B1296(2)  c728      -1
    B1297(2)  c877      1
    B1297(2)  c728      -1
    B1298(2)  c1564     1
    B1298(2)  c728      -1
    B1299(2)  c927      1
    B1299(2)  c728      -1
    B1300(2)  c1223     1
    B1300(2)  c728      -1
    B1301(2)  c1136     1
    B1301(2)  c728      -1
    B1302(2)  c758      1
    B1302(2)  c728      -1
    B1303(2)  c1668     1
    B1303(2)  c728      -1
    B1304(2)  c350      1
    B1304(2)  c728      -1
    B1305(2)  c1450     1
    B1305(2)  c728      -1
    B1306(2)  c1077     1
    B1306(2)  c945      -1
    B1307(2)  c1608     1
    B1307(2)  c226      -1
    B1308(2)  c1234     1
    B1308(2)  c625      -1
    B1309(2)  c1217     1
    B1309(2)  c374      -1
    B1310(2)  c1408     1
    B1310(2)  c1160     -1
    B1311(2)  c32       1
    B1311(2)  c637      -1
    B1312(2)  c353      1
    B1312(2)  c196      -1
    B1313(2)  c1301     1
    B1313(2)  c1251     -1
    B1314(2)  c184      1
    B1314(2)  c1679     -1
    B1315(2)  c491      1
    B1315(2)  c705      -1
    B1316(2)  c1063     1
    B1316(2)  c1052     -1
    B1317(2)  c1586     1
    B1317(2)  c1131     -1
    B1318(2)  c1042     1
    B1318(2)  c124      -1
    MARKER    'MARKER'                 'INTEND'
    C1319(1)  c124      -1
    MARKER    'MARKER'                 'INTORG'
    B1320(2)  c1117     1
    B1320(2)  c591      -1
    B1321(2)  c1515     1
    B1321(2)  c591      -1
    B1322(2)  c52       1
    B1322(2)  c591      -1
    B1323(2)  c137      1
    B1323(2)  c591      -1
    B1324(2)  c612      1
    B1324(2)  c591      -1
    B1325(2)  c222      1
    B1325(2)  c591      -1
    B1326(2)  c719      1
    B1326(2)  c591      -1
    B1327(2)  c183      1
    B1327(2)  c591      -1
    B1328(2)  c1684     1
    B1328(2)  c591      -1
    B1329(2)  c935      1
    B1329(2)  c591      -1
    B1330(2)  c534      1
    B1330(2)  c591      -1
    B1331(2)  c306      1
    B1331(2)  c591      -1
    B1332(2)  c1605     1
    B1332(2)  c591      -1
    B1333(2)  c876      1
    B1333(2)  c591      -1
    B1334(2)  c172      1
    B1334(2)  c591      -1
    B1335(2)  c316      1
    B1335(2)  c591      -1
    B1336(2)  c317      1
    B1336(2)  c591      -1
    B1337(2)  c762      1
    B1337(2)  c591      -1
    B1338(2)  c523      1
    B1338(2)  c591      -1
    B1339(2)  c268      1
    B1339(2)  c591      -1
    B1340(2)  c516      1
    B1340(2)  c591      -1
    B1341(2)  c739      1
    B1341(2)  c591      -1
    B1342(2)  c18       1
    B1342(2)  c591      -1
    B1343(2)  c1672     1
    B1343(2)  c591      -1
    B1344(2)  c136      1
    B1344(2)  c591      -1
    B1345(2)  c225      1
    B1345(2)  c591      -1
    B1346(2)  c511      1
    B1346(2)  c591      -1
    B1347(2)  c42       1
    B1347(2)  c591      -1
    B1348(2)  c356      1
    B1348(2)  c591      -1
    B1349(2)  c1385     1
    B1349(2)  c591      -1
    B1350(2)  c156      1
    B1350(2)  c591      -1
    B1351(2)  c195      1
    B1351(2)  c591      -1
    B1352(2)  c1080     1
    B1352(2)  c591      -1
    B1353(2)  c851      1
    B1353(2)  c591      -1
    B1354(2)  c68       1
    B1354(2)  c591      -1
    B1355(2)  c517      1
    B1355(2)  c591      -1
    B1356(2)  c455      1
    B1356(2)  c591      -1
    B1357(2)  c151      1
    B1357(2)  c591      -1
    B1358(2)  c212      1
    B1358(2)  c591      -1
    B1359(2)  c714      1
    B1359(2)  c591      -1
    B1360(2)  c814      1
    B1360(2)  c591      -1
    B1361(2)  c1183     1
    B1361(2)  c591      -1
    B1362(2)  c1175     1
    B1362(2)  c591      -1
    B1363(2)  c640      1
    B1363(2)  c591      -1
    B1364(2)  c663      1
    B1364(2)  c591      -1
    B1365(2)  c649      1
    B1365(2)  c591      -1
    B1366(2)  c189      1
    B1366(2)  c591      -1
    B1367(2)  c524      1
    B1367(2)  c591      -1
    B1368(2)  c526      1
    B1368(2)  c591      -1
    B1369(2)  c170      1
    B1369(2)  c591      -1
    B1370(2)  c1246     1
    B1370(2)  c591      -1
    B1371(2)  c1079     1
    B1371(2)  c591      -1
    B1372(2)  c1358     1
    B1372(2)  c591      -1
    B1373(2)  c864      1
    B1373(2)  c591      -1
    B1374(2)  c1570     1
    B1374(2)  c591      -1
    B1375(2)  c1196     1
    B1375(2)  c591      -1
    B1376(2)  c617      1
    B1376(2)  c591      -1
    B1377(2)  c1403     1
    B1377(2)  c591      -1
    B1378(2)  c582      1
    B1378(2)  c591      -1
    B1379(2)  c254      1
    B1379(2)  c591      -1
    B1380(2)  c153      1
    B1380(2)  c591      -1
    B1381(2)  c397      1
    B1381(2)  c591      -1
    B1382(2)  c681      1
    B1382(2)  c591      -1
    B1383(2)  c597      1
    B1383(2)  c591      -1
    B1384(2)  c1565     1
    B1384(2)  c591      -1
    B1385(2)  c578      1
    B1385(2)  c591      -1
    B1386(2)  c69       1
    B1386(2)  c591      -1
    B1387(2)  c318      1
    B1387(2)  c591      -1
    B1388(2)  c55       1
    B1388(2)  c591      -1
    B1389(2)  c1429     1
    B1389(2)  c591      -1
    B1390(2)  c1010     1
    B1390(2)  c591      -1
    B1391(2)  c1205     1
    B1391(2)  c591      -1
    B1392(2)  c828      1
    B1392(2)  c591      -1
    B1393(2)  c884      1
    B1393(2)  c591      -1
    B1394(2)  c145      1
    B1394(2)  c591      -1
    B1395(2)  c1537     1
    B1395(2)  c591      -1
    B1396(2)  c956      1
    B1396(2)  c591      -1
    B1397(2)  c883      1
    B1397(2)  c591      -1
    B1398(2)  c247      1
    B1398(2)  c591      -1
    B1399(2)  c772      1
    B1399(2)  c591      -1
    B1400(2)  c958      1
    B1400(2)  c591      -1
    B1401(2)  c785      1
    B1401(2)  c591      -1
    B1402(2)  c889      1
    B1402(2)  c591      -1
    B1403(2)  c667      1
    B1403(2)  c591      -1
    B1404(2)  c1248     1
    B1404(2)  c591      -1
    B1405(2)  c312      1
    B1405(2)  c591      -1
    B1406(2)  c684      1
    B1406(2)  c591      -1
    B1407(2)  c961      1
    B1407(2)  c591      -1
    B1408(2)  c676      1
    B1408(2)  c591      -1
    B1409(2)  c1225     1
    B1409(2)  c591      -1
    B1410(2)  c1397     1
    B1410(2)  c591      -1
    B1411(2)  c1588     1
    B1411(2)  c591      -1
    B1412(2)  c138      1
    B1412(2)  c591      -1
    B1413(2)  c829      1
    B1413(2)  c591      -1
    B1414(2)  c218      1
    B1414(2)  c591      -1
    B1415(2)  c558      1
    B1415(2)  c591      -1
    B1416(2)  c967      1
    B1416(2)  c591      -1
    B1417(2)  c1592     1
    B1417(2)  c591      -1
    B1418(2)  c147      1
    B1418(2)  c591      -1
    B1419(2)  c813      1
    B1419(2)  c591      -1
    B1420(2)  c1070     1
    B1420(2)  c591      -1
    B1421(2)  c1639     1
    B1421(2)  c591      -1
    B1422(2)  c510      1
    B1422(2)  c591      -1
    B1423(2)  c959      1
    B1423(2)  c591      -1
    B1424(2)  c840      1
    B1424(2)  c591      -1
    B1425(2)  c949      1
    B1425(2)  c591      -1
    B1426(2)  c114      1
    B1426(2)  c591      -1
    B1427(2)  c409      1
    B1427(2)  c591      -1
    B1428(2)  c407      1
    B1428(2)  c591      -1
    B1429(2)  c229      1
    B1429(2)  c591      -1
    B1430(2)  c441      1
    B1430(2)  c591      -1
    B1431(2)  c217      1
    B1431(2)  c591      -1
    B1432(2)  c1598     1
    B1432(2)  c591      -1
    B1433(2)  c539      1
    B1433(2)  c591      -1
    B1434(2)  c466      1
    B1434(2)  c591      -1
    B1435(2)  c1460     1
    B1435(2)  c591      -1
    B1436(2)  c1529     1
    B1436(2)  c591      -1
    B1437(2)  c952      1
    B1437(2)  c591      -1
    B1438(2)  c962      1
    B1438(2)  c591      -1
    B1439(2)  c345      1
    B1439(2)  c591      -1
    B1440(2)  c1653     1
    B1440(2)  c591      -1
    B1441(2)  c1414     1
    B1441(2)  c591      -1
    B1442(2)  c1240     1
    B1442(2)  c591      -1
    B1443(2)  c701      1
    B1443(2)  c591      -1
    B1444(2)  c337      1
    B1444(2)  c591      -1
    B1445(2)  c1281     1
    B1445(2)  c591      -1
    B1446(2)  c419      1
    B1446(2)  c591      -1
    B1447(2)  c618      1
    B1447(2)  c591      -1
    B1448(2)  c1531     1
    B1448(2)  c591      -1
    B1449(2)  c135      1
    B1449(2)  c591      -1
    B1450(2)  c538      1
    B1450(2)  c591      -1
    B1451(2)  c57       1
    B1451(2)  c591      -1
    B1452(2)  c1505     1
    B1452(2)  c591      -1
    B1453(2)  c1288     1
    B1453(2)  c591      -1
    MARKER    'MARKER'                 'INTEND'
    C1454(1)  c591      -1
    MARKER    'MARKER'                 'INTORG'
    B1455(2)  c654      1
    B1455(2)  c1633     -1
    B1456(2)  c1380     1
    B1456(2)  c85       -1
    MARKER    'MARKER'                 'INTEND'
    C1457(1)  c85       -1
    MARKER    'MARKER'                 'INTORG'
    B1458(2)  c1409     1
    B1458(2)  c678      -1
    B1459(2)  c418      1
    B1459(2)  c678      -1
    B1460(2)  c1644     1
    B1460(2)  c678      -1
    B1461(2)  c458      1
    B1461(2)  c678      -1
    B1462(2)  c1463     1
    B1462(2)  c678      -1
    B1463(2)  c1134     1
    B1463(2)  c678      -1
    B1464(2)  c601      1
    B1464(2)  c678      -1
    B1465(2)  c783      1
    B1465(2)  c1560     -1
    B1466(2)  c450      1
    B1466(2)  c1560     -1
    B1467(2)  c86       1
    B1467(2)  c1560     -1
    B1468(2)  c672      1
    B1468(2)  c1560     -1
    B1469(2)  c305      1
    B1469(2)  c1171     -1
    B1470(2)  c416      1
    B1470(2)  c1171     -1
    B1471(2)  c1143     1
    B1471(2)  c1171     -1
    B1472(2)  c1372     1
    B1472(2)  c1171     -1
    B1473(2)  c1523     1
    B1473(2)  c1622     -1
    B1474(2)  c520      1
    B1474(2)  c1622     -1
    B1475(2)  c1119     1
    B1475(2)  c1622     -1
    B1476(2)  c146      1
    B1476(2)  c1622     -1
    B1477(2)  c1553     1
    B1477(2)  c1096     -1
    B1478(2)  c742      1
    B1478(2)  c1096     -1
    B1479(2)  c263      1
    B1479(2)  c1096     -1
    B1480(2)  c21       1
    B1480(2)  c1096     -1
    B1481(2)  c768      1
    B1481(2)  c1096     -1
    B1482(2)  c1656     1
    B1482(2)  c1096     -1
    B1483(2)  c1541     1
    B1483(2)  c1096     -1
    B1484(2)  c555      1
    B1484(2)  c1096     -1
    B1485(2)  c1399     1
    B1485(2)  c1096     -1
    B1486(2)  c1011     1
    B1486(2)  c1096     -1
    B1487(2)  c1041     1
    B1487(2)  c1096     -1
    B1488(2)  c475      1
    B1488(2)  c1096     -1
    B1489(2)  c1499     1
    B1489(2)  c1096     -1
    B1490(2)  c1469     1
    B1490(2)  c1096     -1
    B1491(2)  c492      1
    B1491(2)  c1096     -1
    B1492(2)  c979      1
    B1492(2)  c1096     -1
    B1493(2)  c1291     1
    B1493(2)  c1096     -1
    B1494(2)  c1228     1
    B1494(2)  c567      -1
    B1495(2)  c277      1
    B1495(2)  c567      -1
    B1496(2)  c939      1
    B1496(2)  c567      -1
    B1497(2)  c998      1
    B1497(2)  c567      -1
    MARKER    'MARKER'                 'INTEND'
    C1498(1)  c119      -1
    MARKER    'MARKER'                 'INTORG'
    B1499(2)  c1580     1
    B1499(2)  c1323     -1
    B1500(2)  c1482     1
    B1500(2)  c869      -1
    MARKER    'MARKER'                 'INTEND'
    C1501(1)  c869      -1
    MARKER    'MARKER'                 'INTORG'
    B1502(2)  c1695     1
    B1502(2)  c58       -1
    B1503(2)  c188      1
    B1503(2)  c570      -1
    B1504(2)  c1028     1
    B1504(2)  c570      -1
    B1505(2)  c256      1
    B1505(2)  c570      -1
    B1506(2)  c1326     1
    B1506(2)  c570      -1
    B1507(2)  c797      1
    B1507(2)  c570      -1
    B1508(2)  c546      1
    B1508(2)  c570      -1
    B1509(2)  c1395     1
    B1509(2)  c570      -1
    B1510(2)  c1126     1
    B1510(2)  c570      -1
    B1511(2)  c620      1
    B1511(2)  c978      -1
    B1512(2)  c1395     1
    B1512(2)  c566      -1
    B1513(2)  c20       1
    B1513(2)  c1591     -1
    MARKER    'MARKER'                 'INTEND'
    C1514(1)  c1591     -1
    MARKER    'MARKER'                 'INTORG'
    B1515(2)  c713      1
    B1515(2)  c1577     -1
    B1516(2)  c1645     1
    B1516(2)  c1577     -1
    B1517(2)  c345      1
    B1517(2)  c606      -1
    MARKER    'MARKER'                 'INTEND'
    C1518(1)  c606      -1
    MARKER    'MARKER'                 'INTORG'
    B1519(2)  c1019     1
    B1519(2)  c509      -1
    B1520(2)  c104      1
    B1520(2)  c128      -1
    B1521(2)  c1512     1
    B1521(2)  c128      -1
    B1522(2)  c870      1
    B1522(2)  c128      -1
    B1523(2)  c1253     1
    B1523(2)  c128      -1
    B1524(2)  c1433     1
    B1524(2)  c128      -1
    B1525(2)  c294      1
    B1525(2)  c128      -1
    B1526(2)  c457      1
    B1526(2)  c128      -1
    B1527(2)  c759      1
    B1527(2)  c128      -1
    B1528(2)  c415      1
    B1528(2)  c128      -1
    B1529(2)  c1072     1
    B1529(2)  c128      -1
    B1530(2)  c169      1
    B1530(2)  c128      -1
    B1531(2)  c1114     1
    B1531(2)  c128      -1
    B1532(2)  c520      1
    B1532(2)  c128      -1
    B1533(2)  c467      1
    B1533(2)  c128      -1
    B1534(2)  c863      1
    B1534(2)  c128      -1
    B1535(2)  c425      1
    B1535(2)  c128      -1
    B1536(2)  c238      1
    B1536(2)  c128      -1
    B1537(2)  c333      1
    B1537(2)  c128      -1
    B1538(2)  c118      1
    B1538(2)  c128      -1
    B1539(2)  c476      1
    B1539(2)  c128      -1
    B1540(2)  c769      1
    B1540(2)  c128      -1
    B1541(2)  c1578     1
    B1541(2)  c853      -1
    B1542(2)  c480      1
    B1542(2)  c853      -1
    B1543(2)  c503      1
    B1543(2)  c422      -1
    B1544(2)  c1519     1
    B1544(2)  c422      -1
    B1545(2)  c401      1
    B1545(2)  c1614     -1
    B1546(2)  c52       1
    B1546(2)  c1018     -1
    B1547(2)  c1354     1
    B1547(2)  c1018     -1
    MARKER    'MARKER'                 'INTEND'
    C1548(1)  c1018     -1
    MARKER    'MARKER'                 'INTORG'
    B1549(2)  c52       1
    B1549(2)  c586      -1
    MARKER    'MARKER'                 'INTEND'
    C1550(1)  c586      -1
    MARKER    'MARKER'                 'INTORG'
    B1551(2)  c1387     1
    B1551(2)  c682      -1
    B1552(2)  c1412     1
    B1552(2)  c682      -1
    B1553(2)  c1587     1
    B1553(2)  c1230     -1
    B1554(2)  c1084     1
    B1554(2)  c1230     -1
    B1555(2)  c103      1
    B1555(2)  c1189     -1
    B1556(2)  c679      1
    B1556(2)  c818      -1
    B1557(2)  c1511     1
    B1557(2)  c1141     -1
    MARKER    'MARKER'                 'INTEND'
    C1558(1)  c1141     -1
    MARKER    'MARKER'                 'INTORG'
    B1559(2)  c619      1
    B1559(2)  c634      -1
    B1560(2)  c746      1
    B1560(2)  c1097     -1
    B1561(2)  c1664     1
    B1561(2)  c1097     -1
    B1562(2)  c199      1
    B1562(2)  c1097     -1
    B1563(2)  c894      1
    B1563(2)  c1097     -1
    B1564(2)  c564      1
    B1564(2)  c1097     -1
    B1565(2)  c1649     1
    B1565(2)  c56       -1
    B1566(2)  c1440     1
    B1566(2)  c996      -1
    B1567(2)  c639      1
    B1567(2)  c996      -1
    MARKER    'MARKER'                 'INTEND'
    C1568(1)  c996      -1
    MARKER    'MARKER'                 'INTORG'
    B1569(2)  c1364     1
    B1569(2)  c1507     -1
    B1570(2)  c326      1
    B1570(2)  c571      -1
    B1571(2)  c847      1
    B1571(2)  c571      -1
    MARKER    'MARKER'                 'INTEND'
    C1572(1)  c571      -1
    MARKER    'MARKER'                 'INTORG'
    B1573(2)  c191      1
    B1573(2)  c1208     -1
    B1574(2)  c140      1
    B1574(2)  c266      -1
    B1575(2)  c707      1
    B1575(2)  c1673     -1
    B1576(2)  c385      1
    B1576(2)  c703      -1
    B1577(2)  c754      1
    B1577(2)  c703      -1
    B1578(2)  c190      1
    B1578(2)  c703      -1
    B1579(2)  c795      1
    B1579(2)  c703      -1
    B1580(2)  c981      1
    B1580(2)  c703      -1
    B1581(2)  c650      1
    B1581(2)  c703      -1
    B1582(2)  c1053     1
    B1582(2)  c703      -1
    B1583(2)  c602      1
    B1583(2)  c1107     -1
    B1584(2)  c896      1
    B1584(2)  c167      -1
    MARKER    'MARKER'                 'INTEND'
    C1585(1)  c167      -1
    MARKER    'MARKER'                 'INTORG'
    B1586(2)  c982      1
    B1586(2)  c1532     -1
    MARKER    'MARKER'                 'INTEND'
    C1587(1)  c1532     -1
    MARKER    'MARKER'                 'INTORG'
    B1588(2)  c1425     1
    B1588(2)  c1185     -1
    B1589(2)  c97       1
    B1589(2)  c1185     -1
    B1590(2)  c220      1
    B1590(2)  c1185     -1
    B1591(2)  c289      1
    B1591(2)  c1185     -1
    B1592(2)  c699      1
    B1592(2)  c1185     -1
    B1593(2)  c895      1
    B1593(2)  c1185     -1
    B1594(2)  c1510     1
    B1594(2)  c1185     -1
    B1595(2)  c984      1
    B1595(2)  c1185     -1
    B1596(2)  c940      1
    B1596(2)  c1185     -1
    B1597(2)  c1480     1
    B1597(2)  c1185     -1
    B1598(2)  c258      1
    B1598(2)  c1185     -1
    B1599(2)  c1014     1
    B1599(2)  c1185     -1
    B1600(2)  c1391     1
    B1600(2)  c1185     -1
    B1601(2)  c651      1
    B1601(2)  c1185     -1
    B1602(2)  c1526     1
    B1602(2)  c1185     -1
    B1603(2)  c174      1
    B1603(2)  c1185     -1
    B1604(2)  c1381     1
    B1604(2)  c787      -1
    B1605(2)  c78       1
    B1605(2)  c107      -1
    B1606(2)  c1688     1
    B1606(2)  c1468     -1
    B1607(2)  c1238     1
    B1607(2)  c1154     -1
    B1608(2)  c1472     1
    B1608(2)  c1471     -1
    B1609(2)  c1374     1
    B1609(2)  c447      -1
    B1610(2)  c752      1
    B1610(2)  c1594     -1
    B1611(2)  c898      1
    B1611(2)  c878      -1
    B1612(2)  c477      1
    B1612(2)  c1241     -1
    MARKER    'MARKER'                 'INTEND'
RHS
    RHS1      c820      -34
    RHS1      c873      -18
    RHS1      c396      65
    RHS1      c1615     -17
    RHS1      c1058     29
    RHS1      c1161     -17
    RHS1      c1675     61
    RHS1      c653      -17
    RHS1      c1026     -39
    RHS1      c743      -17
    RHS1      c721      15
    RHS1      c1576     -17
    RHS1      c1697     -1
    RHS1      c698      -17
    RHS1      c291      11
    RHS1      c95       -17
    RHS1      c67       11
    RHS1      c1015     -17
    RHS1      c812      39
    RHS1      c1419     -17
    RHS1      c792      -16
    RHS1      c348      -17
    RHS1      c1589     62
    RHS1      c1619     -17
    RHS1      c1446     -8
    RHS1      c1610     -17
    RHS1      c1198     69
    RHS1      c885      -17
    RHS1      c1702     42
    RHS1      c1074     -17
    RHS1      c77       68
    RHS1      c1132     -17
    RHS1      c712      74
    RHS1      c148      -17
    RHS1      c1489     6
    RHS1      c1383     -19
    RHS1      c110      2
    RHS1      c372      -19
    RHS1      c1237     3
    RHS1      c1046     -19
    RHS1      c1604     10
    RHS1      c1617     -19
    RHS1      c423      -26
    RHS1      c1311     -16
    RHS1      c459      74
    RHS1      c126      -18
    RHS1      c846      -21
    RHS1      c298      -18
    RHS1      c1166     38
    RHS1      c635      -18
    RHS1      c278      70
    RHS1      c1176     -18
    RHS1      c636      24
    RHS1      c41       -18
    RHS1      c761      8
    RHS1      c39       -18
    RHS1      c365      20
    RHS1      c926      -18
    RHS1      c1038     20
    RHS1      c1667     -18
    RHS1      c1290     48
    RHS1      c264      -18
    RHS1      c90       -7
    RHS1      c1681     -18
    RHS1      c733      71
    RHS1      c1009     -18
    RHS1      c1055     1
    RHS1      c299      -18
    RHS1      c5        78
    RHS1      c1642     -18
    RHS1      c1016     51
    RHS1      c1635     -18
    RHS1      c580      77
    RHS1      c444      -18
    RHS1      c594      83
    RHS1      c1071     -18
    RHS1      c900      20
    RHS1      c786      -18
    RHS1      c1047     -16
    RHS1      c29       -18
    RHS1      c1133     16
    RHS1      c789      -18
    RHS1      c157      -46
    RHS1      c489      -18
    RHS1      c394      -34
    RHS1      c770      -18
    RHS1      c1180     -6
    RHS1      c506      -18
    RHS1      c71       17
    RHS1      c1415     -18
    RHS1      c478      24
    RHS1      c832      -18
    RHS1      c23       23
    RHS1      c494      -18
    RHS1      c257      29
    RHS1      c532      -18
    RHS1      c1294     36
    RHS1      c1125     -18
    RHS1      c404      -18
    RHS1      c2        32
    RHS1      c1661     -18
    RHS1      c384      -14
    RHS1      c131      -18
    RHS1      c1103     -18
    RHS1      c700      -18
    RHS1      c724      10
    RHS1      c1249     -18
    RHS1      c187      33
    RHS1      c202      -18
    RHS1      c442      40
    RHS1      c391      -18
    RHS1      c694      39
    RHS1      c1115     -18
    RHS1      c608      45
    RHS1      c443      -18
    RHS1      c496      24
    RHS1      c881      -19
    RHS1      c872      -12
    RHS1      c593      -19
    RHS1      c702      20
    RHS1      c572      -19
    RHS1      c1351     -26
    RHS1      c1557     -19
    RHS1      c964      -42
    RHS1      c219      -19
    RHS1      c905      -2
    RHS1      c1159     -19
    RHS1      c386      21
    RHS1      c336      -19
    RHS1      c1371     28
    RHS1      c127      -19
    RHS1      c590      27
    RHS1      c1509     -19
    RHS1      c1076     33
    RHS1      c143      -19
    RHS1      c243      24
    RHS1      c185      -18
    RHS1      c82       20
    RHS1      c31       -18
    RHS1      c470      -2
    RHS1      c587      -18
    RHS1      c922      21
    RHS1      c1210     -18
    RHS1      c1613     28
    RHS1      c468      -18
    RHS1      c717      1
    RHS1      c1149     -18
    RHS1      c574      27
    RHS1      c1220     -18
    RHS1      c1098     33
    RHS1      c607      -18
    RHS1      c125      -8
    RHS1      c1067     -17
    RHS1      c292      -7
    RHS1      c1494     -17
    RHS1      c632      -17
    RHS1      c569      -1
    RHS1      c1013     -17
    RHS1      c513      5
    RHS1      c1083     -17
    RHS1      c1567     56
    RHS1      c208      -16
    RHS1      c765      20
    RHS1      c351      -16
    RHS1      c973      52
    RHS1      c233      -16
    RHS1      c1477     6
    RHS1      c854      -16
    RHS1      c1123     -10
    RHS1      c1370     -16
    RHS1      c1303     2
    RHS1      c915      -16
    RHS1      c1687     2
    RHS1      c1286     -16
    RHS1      c134      30
    RHS1      c581      -16
    RHS1      c816      -25
    RHS1      c1474     -16
    RHS1      c916      53
    RHS1      c730      -16
    RHS1      c26       -31
    RHS1      c387      -16
    RHS1      c282      -17
    RHS1      c355      -16
    RHS1      c366      60
    RHS1      c1312     -16
    RHS1      c81       33
    RHS1      c1575     -16
    RHS1      c736      3
    RHS1      c72       -16
    RHS1      c1543     59
    RHS1      c776      -16
    RHS1      c1550     65
    RHS1      c451      -16
    RHS1      c675      51
    RHS1      c677      -18
    RHS1      c866      15
    RHS1      c1227     -18
    RHS1      c1054     47
    RHS1      c1174     -18
    RHS1      c983      1
    RHS1      c1279     -18
    RHS1      c1034     -15
    RHS1      c1696     -18
    RHS1      c1600     -3
    RHS1      c656      -18
    RHS1      c100      -3
    RHS1      c1209     -18
    RHS1      c1405     25
    RHS1      c1203     -18
    RHS1      c932      -35
    RHS1      c729      -18
    RHS1      c1022     48
    RHS1      c1572     -18
    RHS1      c548      -36
    RHS1      c286      -18
    RHS1      c501      -22
    RHS1      c867      -18
    RHS1      c1245     55
    RHS1      c1242     -18
    RHS1      c471      28
    RHS1      c1236     -18
    RHS1      c948      -2
    RHS1      c7        -18
    RHS1      c1597     54
    RHS1      c1430     -18
    RHS1      c810      60
    RHS1      c204      -18
    RHS1      c1455     -23
    RHS1      c437      -19
    RHS1      c688      80
    RHS1      c1191     -19
    RHS1      c1533     -15
    RHS1      c424      -19
    RHS1      c859      44
    RHS1      c1232     -19
    RHS1      c664      76
    RHS1      c1458     -19
    RHS1      c1108     30
    RHS1      c920      -19
    RHS1      c1660     14
    RHS1      c173      -19
    RHS1      c888      26
    RHS1      c1197     -19
    RHS1      c706      26
    RHS1      c215      -19
    RHS1      c331      54
    RHS1      c274      -19
    RHS1      c1627     -6
    RHS1      c1278     -19
    RHS1      c449      -1
    RHS1      c1271     -19
    RHS1      c186      77
    RHS1      c1282     -19
    RHS1      c1549     -7
    RHS1      c1124     -19
    RHS1      c161      7
    RHS1      c439      -19
    RHS1      c839      84
    RHS1      c304      -19
    RHS1      c1606     22
    RHS1      c1211     -19
    RHS1      c360      7
    RHS1      c1147     -19
    RHS1      c858      57
    RHS1      c1259     -19
    RHS1      c28       27
    RHS1      c279      -19
    RHS1      c216      83
    RHS1      c1692     -19
    RHS1      c309      89
    RHS1      c1021     -19
    RHS1      c764      57
    RHS1      c483      -18
    RHS1      c1235     21
    RHS1      c1340     -18
    RHS1      c1693     53
    RHS1      c1500     -18
    RHS1      c13       7
    RHS1      c507      -18
    RHS1      c1029     -9
    RHS1      c231      -18
    RHS1      c340      3
    RHS1      c1163     -18
    RHS1      c241      3
    RHS1      c1476     -18
    RHS1      c158      31
    RHS1      c1428     -18
    RHS1      c595      -29
    RHS1      c302      -18
    RHS1      c1002     -24
    RHS1      c1020     -18
    RHS1      c603      54
    RHS1      c259      -18
    RHS1      c588      -16
    RHS1      c15       -18
    RHS1      c1491     61
    RHS1      c843      -18
    RHS1      c527      34
    RHS1      c1493     -18
    RHS1      c33       4
    RHS1      c1394     -18
    RHS1      c260      60
    RHS1      c941      -18
    RHS1      c432      66
    RHS1      c845      -18
    RHS1      c723      43
    RHS1      c993      -18
    RHS1      c251      7
    RHS1      c149      -18
    RHS1      c887      39
    RHS1      c1199     -18
    RHS1      c848      -7
    RHS1      c508      -18
    RHS1      c827      -11
    RHS1      c1454     -18
    RHS1      c354      17
    RHS1      c1365     -18
    RHS1      c1601     -38
    RHS1      c891      -18
    RHS1      c643      40
    RHS1      c1546     -18
    RHS1      c1360     -44
    RHS1      c1264     -18
    RHS1      c1571     47
    RHS1      c328      -18
    RHS1      c1342     20
    RHS1      c609      -18
    RHS1      c430      46
    RHS1      c774      -18
    RHS1      c1345     52
    RHS1      c1095     -18
    RHS1      c1335     -37
    RHS1      c207      -18
    RHS1      c113      2
    RHS1      c628      -18
    RHS1      c901      25
    RHS1      c697      -18
    RHS1      c596      32
    RHS1      c1184     -18
    RHS1      c1012     5
    RHS1      c1343     -18
    RHS1      c1514     -25
    RHS1      c1459     -18
    RHS1      c462      31
    RHS1      c1082     -18
    RHS1      c584      37
    RHS1      c91       -18
    RHS1      c1190     43
    RHS1      c838      -16
    RHS1      c689      39
    RHS1      c1539     -16
    RHS1      c284      17
    RHS1      c244      -16
    RHS1      c1466     40
    RHS1      c411      -16
    RHS1      c1150     47
    RHS1      c498      -16
    RHS1      c105      -15
    RHS1      c98       -16
    RHS1      c431      20
    RHS1      c177      -16
    RHS1      c1292     -35
    RHS1      c1655     -16
    RHS1      c633      -10
    RHS1      c545      -16
    RHS1      c1452     -37
    RHS1      c1287     -16
    RHS1      c392      46
    RHS1      c767      -16
    RHS1      c1066     52
    RHS1      c181      -16
    RHS1      c93       -4
    RHS1      c1138     -19
    RHS1      c1506     2
    RHS1      c1172     -19
    RHS1      c1685     48
    RHS1      c343      -19
    RHS1      c288      44
    RHS1      c825      -19
    RHS1      c1389     -6
    RHS1      c747      -19
    RHS1      c924      22
    RHS1      c1467     -19
    RHS1      c1357     45
    RHS1      c779      -19
    RHS1      c1214     52
    RHS1      c376      -19
    RHS1      c37       -10
    RHS1      c1344     -19
    RHS1      c1410     -25
    RHS1      c1513     -19
    RHS1      c1057     25
    RHS1      c680      -19
    RHS1      c406      -5
    RHS1      c604      -19
    RHS1      c1534     -32
    RHS1      c1376     -19
    RHS1      c240      51
    RHS1      c1087     -19
    RHS1      c1439     57
    RHS1      c1420     -19
    RHS1      c1112     23
    RHS1      c899      -16
    RHS1      c1349     19
    RHS1      c232      -16
    RHS1      c740      -3
    RHS1      c660      -16
    RHS1      c642      20
    RHS1      c273      -16
    RHS1      c1347     27
    RHS1      c223      -16
    RHS1      c45       -35
    RHS1      c358      -16
    RHS1      c1623     -16
    RHS1      c833      26
    RHS1      c804      -16
    RHS1      c842      32
    RHS1      c479      -16
    RHS1      c1689     50
    RHS1      c1432     -17
    RHS1      c821      46
    RHS1      c1542     -17
    RHS1      c1142     -4
    RHS1      c417      -17
    RHS1      c874      24
    RHS1      c334      -17
    RHS1      c871      47
    RHS1      c1283     -17
    RHS1      c1559     54
    RHS1      c445      -17
    RHS1      c310      -8
    RHS1      c577      -17
    RHS1      c627      -23
    RHS1      c1540     -17
    RHS1      c359      27
    RHS1      c1336     -17
    RHS1      c35       -28
    RHS1      c1698     -17
    RHS1      c61       -3
    RHS1      c673      -17
    RHS1      c968      53
    RHS1      c1441     -17
    RHS1      c369      59
    RHS1      c986      -17
    RHS1      c341      -24
    RHS1      c178      -19
    RHS1      c1263     -36
    RHS1      c428      -18
    RHS1      c200      1
    RHS1      c142      1
    RHS1      c130      1
    RHS1      c1332     1
    RHS1      c1270     1
    RHS1      c1647     1
    RHS1      c1310     1
    RHS1      c1423     1
    RHS1      c1233     1
    RHS1      c562      1
    RHS1      c213      1
    RHS1      c914      1
    RHS1      c918      1
    RHS1      c120      1
    RHS1      c1179     1
    RHS1      c1128     1
    RHS1      c857      1
    RHS1      c1106     1
    RHS1      c960      1
    RHS1      c1285     1
    RHS1      c1186     1
    RHS1      c62       1
    RHS1      c855      1
    RHS1      c1651     1
    RHS1      c1535     1
    RHS1      c108      3
    RHS1      c382      3.3332333333333364e-01
    RHS1      c685      6.6665666666666668e-01
BOUNDS
 BV BND1      B0(10)  
 BV BND1      B1(6)   
 BV BND1      B2(10)  
 BV BND1      B3(10)  
 BV BND1      B4(10)  
 BV BND1      B5(10)  
 BV BND1      B6(10)  
 BV BND1      B7(10)  
 BV BND1      B8(10)  
 BV BND1      B9(10)  
 BV BND1      B10(10) 
 BV BND1      B11(10) 
 BV BND1      B12(10) 
 BV BND1      B13(10) 
 BV BND1      B14(10) 
 BV BND1      B15(10) 
 BV BND1      B16(10) 
 BV BND1      B17(10) 
 BV BND1      B18(6)  
 BV BND1      B19(10) 
 BV BND1      B20(10) 
 BV BND1      B21(10) 
 BV BND1      B22(10) 
 BV BND1      B23(6)  
 BV BND1      B24(10) 
 BV BND1      B25(6)  
 BV BND1      B26(10) 
 BV BND1      B27(10) 
 BV BND1      B28(10) 
 BV BND1      B29(10) 
 BV BND1      B30(10) 
 BV BND1      B31(10) 
 BV BND1      B32(10) 
 BV BND1      B33(10) 
 BV BND1      B34(10) 
 BV BND1      B35(10) 
 BV BND1      B36(10) 
 BV BND1      B37(10) 
 BV BND1      B38(10) 
 BV BND1      B39(10) 
 BV BND1      B40(10) 
 BV BND1      B41(10) 
 BV BND1      B42(6)  
 BV BND1      B43(10) 
 BV BND1      B44(10) 
 BV BND1      B45(10) 
 BV BND1      B46(10) 
 BV BND1      B47(10) 
 BV BND1      B48(10) 
 BV BND1      B49(10) 
 BV BND1      B50(10) 
 BV BND1      B51(10) 
 BV BND1      B52(10) 
 BV BND1      B53(6)  
 BV BND1      B54(10) 
 BV BND1      B55(10) 
 BV BND1      B56(10) 
 BV BND1      B57(10) 
 BV BND1      B58(10) 
 BV BND1      B59(10) 
 BV BND1      B60(10) 
 BV BND1      B61(10) 
 BV BND1      B62(10) 
 BV BND1      B63(10) 
 BV BND1      B64(6)  
 BV BND1      B65(10) 
 BV BND1      B66(10) 
 BV BND1      B67(10) 
 BV BND1      B68(10) 
 BV BND1      B69(10) 
 BV BND1      B70(10) 
 BV BND1      B71(10) 
 BV BND1      B72(10) 
 BV BND1      B73(10) 
 BV BND1      B74(10) 
 BV BND1      B75(6)  
 BV BND1      B76(10) 
 BV BND1      B77(10) 
 BV BND1      B78(10) 
 BV BND1      B79(10) 
 BV BND1      B80(10) 
 BV BND1      B81(10) 
 BV BND1      B82(10) 
 BV BND1      B83(10) 
 BV BND1      B84(6)  
 BV BND1      B85(10) 
 BV BND1      B86(10) 
 BV BND1      B87(10) 
 BV BND1      B88(10) 
 BV BND1      B89(10) 
 BV BND1      B90(6)  
 BV BND1      B91(10) 
 BV BND1      B92(10) 
 BV BND1      B93(10) 
 BV BND1      B94(10) 
 BV BND1      B95(10) 
 BV BND1      B96(10) 
 BV BND1      B97(10) 
 BV BND1      B98(10) 
 BV BND1      B99(10) 
 BV BND1      B100(10)
 BV BND1      B101(10)
 BV BND1      B102(10)
 BV BND1      B103(10)
 BV BND1      B104(10)
 BV BND1      B105(12)
 BV BND1      B106(10)
 BV BND1      B107(10)
 BV BND1      B108(6) 
 BV BND1      B109(10)
 BV BND1      B110(10)
 BV BND1      B111(9) 
 BV BND1      B112(10)
 BV BND1      B113(10)
 BV BND1      B114(10)
 BV BND1      B115(10)
 BV BND1      B116(10)
 BV BND1      B117(10)
 BV BND1      B118(10)
 BV BND1      B119(10)
 BV BND1      B120(10)
 BV BND1      B121(10)
 BV BND1      B122(10)
 BV BND1      B123(12)
 BV BND1      B124(10)
 BV BND1      B125(10)
 BV BND1      B126(6) 
 BV BND1      B127(10)
 BV BND1      B128(6) 
 BV BND1      B129(10)
 BV BND1      B130(10)
 BV BND1      B131(10)
 BV BND1      B132(10)
 BV BND1      B133(10)
 BV BND1      B134(10)
 BV BND1      B135(10)
 BV BND1      B136(10)
 BV BND1      B137(10)
 BV BND1      B138(10)
 BV BND1      B139(10)
 BV BND1      B140(10)
 BV BND1      B141(10)
 BV BND1      B142(10)
 BV BND1      B143(10)
 BV BND1      B144(12)
 BV BND1      B145(12)
 BV BND1      B146(10)
 BV BND1      B147(12)
 BV BND1      B148(10)
 BV BND1      B149(10)
 BV BND1      B150(6) 
 BV BND1      B151(10)
 BV BND1      B152(10)
 BV BND1      B153(10)
 BV BND1      B154(10)
 BV BND1      B155(10)
 BV BND1      B156(10)
 BV BND1      B157(10)
 BV BND1      B158(10)
 BV BND1      B159(10)
 BV BND1      B160(10)
 BV BND1      B161(10)
 BV BND1      B162(10)
 BV BND1      B163(10)
 BV BND1      B164(10)
 BV BND1      B165(12)
 BV BND1      B166(10)
 BV BND1      B167(10)
 BV BND1      B168(6) 
 BV BND1      B169(10)
 BV BND1      B170(10)
 BV BND1      B171(10)
 BV BND1      B172(10)
 BV BND1      B173(10)
 BV BND1      B174(10)
 BV BND1      B175(10)
 BV BND1      B176(10)
 BV BND1      B177(10)
 BV BND1      B178(10)
 BV BND1      B179(10)
 BV BND1      B180(10)
 BV BND1      B181(10)
 BV BND1      B182(6) 
 BV BND1      B183(10)
 BV BND1      B184(6) 
 BV BND1      B185(10)
 BV BND1      B186(10)
 BV BND1      B187(10)
 BV BND1      B188(10)
 BV BND1      B189(10)
 BV BND1      B190(10)
 BV BND1      B191(10)
 BV BND1      B192(6) 
 BV BND1      B193(10)
 BV BND1      B194(10)
 BV BND1      B195(10)
 BV BND1      B196(10)
 BV BND1      B197(10)
 BV BND1      B198(10)
 BV BND1      B199(10)
 BV BND1      B200(10)
 BV BND1      B201(10)
 BV BND1      B202(10)
 BV BND1      B203(10)
 BV BND1      B204(10)
 BV BND1      B205(6) 
 BV BND1      B206(10)
 BV BND1      B207(10)
 BV BND1      B208(6) 
 BV BND1      B209(10)
 BV BND1      B210(10)
 BV BND1      B211(10)
 BV BND1      B212(10)
 BV BND1      B213(10)
 BV BND1      B214(10)
 BV BND1      B215(10)
 BV BND1      B216(10)
 BV BND1      B217(10)
 BV BND1      B218(10)
 BV BND1      B219(10)
 BV BND1      B220(10)
 BV BND1      B221(10)
 BV BND1      B222(6) 
 BV BND1      B223(10)
 BV BND1      B224(10)
 BV BND1      B225(10)
 BV BND1      B226(10)
 BV BND1      B227(10)
 BV BND1      B228(10)
 BV BND1      B229(10)
 BV BND1      B230(10)
 BV BND1      B231(10)
 BV BND1      B232(6) 
 BV BND1      B233(10)
 BV BND1      B234(10)
 BV BND1      B235(10)
 BV BND1      B236(10)
 BV BND1      B237(10)
 BV BND1      B238(10)
 BV BND1      B239(10)
 BV BND1      B240(10)
 BV BND1      B241(10)
 BV BND1      B242(10)
 BV BND1      B243(10)
 BV BND1      B244(10)
 BV BND1      B245(10)
 BV BND1      B246(6) 
 BV BND1      B247(10)
 BV BND1      B248(6) 
 BV BND1      B249(10)
 BV BND1      B250(6) 
 BV BND1      B251(6) 
 BV BND1      B252(6) 
 BV BND1      B253(6) 
 BV BND1      B254(6) 
 BV BND1      B255(6) 
 BV BND1      B256(6) 
 BV BND1      B257(6) 
 BV BND1      B258(6) 
 BV BND1      B259(6) 
 BV BND1      B260(6) 
 BV BND1      B261(6) 
 BV BND1      B262(6) 
 BV BND1      B263(6) 
 BV BND1      B264(6) 
 BV BND1      B265(6) 
 BV BND1      B266(6) 
 BV BND1      B267(6) 
 BV BND1      B268(8) 
 BV BND1      B269(8) 
 BV BND1      B270(6) 
 BV BND1      B271(8) 
 BV BND1      B272(8) 
 BV BND1      B273(7) 
 BV BND1      B274(6) 
 BV BND1      B275(6) 
 LO BND1      C276(18)  2
 UP BND1      C276(18)  20
 LO BND1      C277(18)  65
 UP BND1      C277(18)  95
 LO BND1      C278(18)  3
 UP BND1      C278(18)  20
 LO BND1      C279(18)  160
 UP BND1      C279(18)  190
 LO BND1      C280(14)  1
 UP BND1      C280(14)  20
 LO BND1      C281(14)  101
 UP BND1      C281(14)  131
 LO BND1      C282(19)  4
 UP BND1      C282(19)  20
 LO BND1      C283(19)  69
 UP BND1      C283(19)  99
 LO BND1      C284(17)  2
 UP BND1      C284(17)  20
 LO BND1      C285(17)  169
 UP BND1      C285(17)  199
 LO BND1      C286(19)  2
 UP BND1      C286(19)  20
 LO BND1      C287(19)  115
 UP BND1      C287(19)  145
 LO BND1      C288(18)  2
 UP BND1      C288(18)  20
 LO BND1      C289(18)  131
 UP BND1      C289(18)  161
 LO BND1      C290(18)  1
 UP BND1      C290(18)  20
 LO BND1      C291(18)  119
 UP BND1      C291(18)  149
 LO BND1      C292(17)  2
 UP BND1      C292(17)  20
 LO BND1      C293(17)  119
 UP BND1      C293(17)  149
 LO BND1      C294(21)  3
 UP BND1      C294(21)  20
 LO BND1      C295(21)  91
 UP BND1      C295(21)  121
 LO BND1      C296(20)  4
 UP BND1      C296(20)  20
 LO BND1      C297(20)  151
 UP BND1      C297(20)  181
 LO BND1      C298(23)  2
 UP BND1      C298(23)  20
 LO BND1      C299(23)  146
 UP BND1      C299(23)  176
 LO BND1      C300(20)  1
 UP BND1      C300(20)  20
 LO BND1      C301(20)  68
 UP BND1      C301(20)  98
 LO BND1      C302(21)  1
 UP BND1      C302(21)  20
 LO BND1      C303(21)  175
 UP BND1      C303(21)  204.7
 LO BND1      C304(21)  2
 UP BND1      C304(21)  20
 LO BND1      C305(21)  152
 UP BND1      C305(21)  182
 LO BND1      C306(19)  2
 UP BND1      C306(19)  20
 LO BND1      C307(19)  138
 UP BND1      C307(19)  168
 LO BND1      C308(20)  2
 UP BND1      C308(20)  20
 LO BND1      C309(20)  61
 UP BND1      C309(20)  91
 LO BND1      C310(12)  2
 UP BND1      C310(12)  20
 LO BND1      C311(12)  123
 UP BND1      C311(12)  153
 LO BND1      C312(15)  4
 UP BND1      C312(15)  20
 LO BND1      C313(15)  138
 UP BND1      C313(15)  168
 LO BND1      C314(15)  1
 UP BND1      C314(15)  20
 LO BND1      C315(15)  88
 UP BND1      C315(15)  118
 LO BND1      C316(15)  1
 UP BND1      C316(15)  20
 LO BND1      C317(15)  143
 UP BND1      C317(15)  173
 LO BND1      C318(17)  4
 UP BND1      C318(17)  20
 LO BND1      C319(17)  118
 UP BND1      C319(17)  148
 LO BND1      C320(15)  3
 UP BND1      C320(15)  20
 LO BND1      C321(15)  145
 UP BND1      C321(15)  175
 LO BND1      C322(20)  1
 UP BND1      C322(20)  20
 LO BND1      C323(20)  62
 UP BND1      C323(20)  92
 LO BND1      C324(20)  2
 UP BND1      C324(20)  20
 LO BND1      C325(20)  56
 UP BND1      C325(20)  86
 LI BND1      I326(1)   0
 LI BND1      I327(1)   0
 LI BND1      I328(3)   0
 LI BND1      I329(1)   0
 LI BND1      I330(1)   0
 LI BND1      I331(3)   0
 LI BND1      I332(1)   0
 LI BND1      I333(1)   0
 LI BND1      I334(3)   0
 LI BND1      I335(1)   0
 LI BND1      I336(3)   0
 LI BND1      I337(1)   0
 LI BND1      I338(3)   0
 LI BND1      I339(1)   0
 LI BND1      I340(3)   0
 LI BND1      I341(1)   0
 LI BND1      I342(1)   0
 LI BND1      I343(3)   0
 LI BND1      I344(1)   0
 LI BND1      I345(1)   0
 LI BND1      I346(3)   0
 LI BND1      I347(1)   0
 LI BND1      I348(3)   0
 LI BND1      I349(1)   0
 LI BND1      I350(1)   0
 LI BND1      I351(3)   0
 LI BND1      I352(3)   0
 LI BND1      I353(1)   0
 LI BND1      I354(3)   0
 LI BND1      I355(1)   0
 LI BND1      I356(1)   0
 LI BND1      I357(3)   0
 LI BND1      I358(1)   0
 LI BND1      I359(3)   0
 LI BND1      I360(1)   0
 LI BND1      I361(1)   0
 LI BND1      I362(1)   0
 LI BND1      I363(3)   0
 LI BND1      I364(1)   0
 LI BND1      I365(3)   0
 LI BND1      I366(1)   0
 LI BND1      I367(2)   0
 LI BND1      I368(3)   0
 LI BND1      I369(3)   0
 LI BND1      I370(3)   0
 LI BND1      I371(3)   0
 LI BND1      I372(3)   0
 LI BND1      I373(3)   0
 LI BND1      I374(2)   0
 LI BND1      I375(3)   0
 LI BND1      I376(3)   0
 LI BND1      I377(3)   0
 LI BND1      I378(3)   0
 LI BND1      I379(3)   0
 LI BND1      I380(3)   0
 LI BND1      I381(3)   0
 LI BND1      I382(3)   0
 LI BND1      I383(3)   0
 LI BND1      I384(3)   0
 LI BND1      I385(2)   0
 LI BND1      I386(3)   0
 LI BND1      I387(3)   0
 LI BND1      I388(3)   0
 LI BND1      I389(3)   0
 LI BND1      I390(3)   0
 LI BND1      I391(3)   0
 LI BND1      I392(3)   0
 LI BND1      I393(3)   0
 LI BND1      I394(2)   0
 LI BND1      I395(3)   0
 LI BND1      I396(3)   0
 LI BND1      I397(3)   0
 LI BND1      I398(3)   0
 LI BND1      I399(3)   0
 LI BND1      I400(2)   0
 LI BND1      I401(3)   0
 LI BND1      I402(3)   0
 LI BND1      I403(3)   0
 LI BND1      I404(3)   0
 LI BND1      I405(3)   0
 LI BND1      I406(3)   0
 LI BND1      I407(3)   0
 LI BND1      I408(3)   0
 LI BND1      I409(2)   0
 LI BND1      I410(3)   0
 LI BND1      I411(3)   0
 LI BND1      I412(3)   0
 LI BND1      I413(3)   0
 LI BND1      I414(3)   0
 LI BND1      I415(3)   0
 LI BND1      I416(3)   0
 LI BND1      I417(3)   0
 LI BND1      I418(3)   0
 LI BND1      I419(3)   0
 LI BND1      I420(3)   0
 LI BND1      I421(3)   0
 LI BND1      I422(3)   0
 LI BND1      I423(3)   0
 LI BND1      I424(2)   0
 LI BND1      I425(3)   0
 LI BND1      I426(2)   0
 LI BND1      I427(3)   0
 LI BND1      I428(3)   0
 LI BND1      I429(3)   0
 LI BND1      I430(3)   0
 LI BND1      I431(3)   0
 LI BND1      I432(3)   0
 LI BND1      I433(3)   0
 LI BND1      I434(3)   0
 LI BND1      I435(3)   0
 LI BND1      I436(2)   0
 LI BND1      I437(3)   0
 LI BND1      I438(3)   0
 LI BND1      I439(3)   0
 LI BND1      I440(3)   0
 LI BND1      I441(2)   0
 LI BND1      I442(3)   0
 LI BND1      I443(3)   0
 LI BND1      I444(3)   0
 LI BND1      I445(2)   0
 LI BND1      I446(3)   0
 LI BND1      I447(3)   0
 LI BND1      I448(3)   0
 LI BND1      I449(3)   0
 LI BND1      I450(3)   0
 LI BND1      I451(3)   0
 LI BND1      I452(3)   0
 LI BND1      I453(3)   0
 LI BND1      I454(3)   0
 LI BND1      I455(3)   0
 LI BND1      I456(3)   0
 LI BND1      I457(3)   0
 LI BND1      I458(3)   0
 LI BND1      I459(3)   0
 LI BND1      I460(3)   0
 LI BND1      I461(3)   0
 LI BND1      I462(3)   0
 LI BND1      I463(3)   0
 LI BND1      I464(2)   0
 LI BND1      I465(3)   0
 LI BND1      I466(3)   0
 LI BND1      I467(3)   0
 LI BND1      I468(3)   0
 LI BND1      I469(3)   0
 LI BND1      I470(3)   0
 LI BND1      I471(3)   0
 LI BND1      I472(3)   0
 LI BND1      I473(3)   0
 LI BND1      I474(3)   0
 LI BND1      I475(3)   0
 LI BND1      I476(3)   0
 LI BND1      I477(3)   0
 LI BND1      I478(3)   0
 LI BND1      I479(3)   0
 LI BND1      I480(3)   0
 LI BND1      I481(3)   0
 LI BND1      I482(2)   0
 LI BND1      I483(3)   0
 LI BND1      I484(3)   0
 LI BND1      I485(3)   0
 LI BND1      I486(3)   0
 LI BND1      I487(2)   0
 LI BND1      I488(3)   0
 LI BND1      I489(3)   0
 LI BND1      I490(3)   0
 LI BND1      I491(3)   0
 LI BND1      I492(3)   0
 LI BND1      I493(3)   0
 LI BND1      I494(3)   0
 LI BND1      I495(3)   0
 LI BND1      I496(3)   0
 LI BND1      I497(3)   0
 LI BND1      I498(3)   0
 LI BND1      I499(3)   0
 LI BND1      I500(3)   0
 LI BND1      I501(3)   0
 LI BND1      I502(3)   0
 LI BND1      I503(3)   0
 LI BND1      I504(2)   0
 LI BND1      I505(2)   0
 LI BND1      I506(2)   0
 LI BND1      I507(2)   0
 LI BND1      I508(2)   0
 LI BND1      I509(2)   0
 LI BND1      I510(2)   0
 LI BND1      I511(2)   0
 LI BND1      I512(2)   0
 LI BND1      I513(2)   0
 LI BND1      I514(2)   0
 LI BND1      I515(2)   0
 LI BND1      I516(2)   0
 LI BND1      I517(1)   0
 LI BND1      I518(1)   0
 LI BND1      I519(1)   0
 LI BND1      I520(3)   0
 LI BND1      I521(1)   0
 LI BND1      I522(1)   0
 LI BND1      I523(1)   0
 LI BND1      I524(1)   0
 LI BND1      I525(1)   0
 LI BND1      I526(1)   0
 LI BND1      I527(1)   0
 LI BND1      I528(1)   0
 LI BND1      I529(1)   0
 LI BND1      I530(1)   0
 LI BND1      I531(3)   0
 LI BND1      I532(2)   0
 LI BND1      I533(3)   0
 LI BND1      I534(3)   0
 LI BND1      I535(3)   0
 LI BND1      I536(3)   0
 LI BND1      I537(3)   0
 LI BND1      I538(3)   0
 LI BND1      I539(3)   0
 LI BND1      I540(3)   0
 LI BND1      I541(3)   0
 LI BND1      I542(3)   0
 LI BND1      I543(2)   0
 LI BND1      I544(3)   0
 LI BND1      I545(3)   0
 LI BND1      I546(3)   0
 LI BND1      I547(3)   0
 LI BND1      I548(3)   0
 LI BND1      I549(3)   0
 LI BND1      I550(3)   0
 LI BND1      I551(3)   0
 LI BND1      I552(3)   0
 LI BND1      I553(2)   0
 LI BND1      I554(3)   0
 LI BND1      I555(3)   0
 LI BND1      I556(3)   0
 LI BND1      I557(3)   0
 LI BND1      I558(3)   0
 LI BND1      I559(2)   0
 LI BND1      I560(3)   0
 LI BND1      I561(3)   0
 LI BND1      I562(3)   0
 LI BND1      I563(3)   0
 LI BND1      I564(3)   0
 LI BND1      I565(3)   0
 LI BND1      I566(2)   0
 LI BND1      I567(3)   0
 LI BND1      I568(3)   0
 LI BND1      I569(3)   0
 LI BND1      I570(3)   0
 LI BND1      I571(2)   0
 LI BND1      I572(3)   0
 LI BND1      I573(3)   0
 LI BND1      I574(3)   0
 LI BND1      I575(3)   0
 LI BND1      I576(3)   0
 LI BND1      I577(3)   0
 LI BND1      I578(3)   0
 LI BND1      I579(3)   0
 LI BND1      I580(3)   0
 LI BND1      I581(3)   0
 LI BND1      I582(2)   0
 LI BND1      I583(3)   0
 LI BND1      I584(3)   0
 LI BND1      I585(3)   0
 LI BND1      I586(3)   0
 LI BND1      I587(3)   0
 LI BND1      I588(3)   0
 LI BND1      I589(3)   0
 LI BND1      I590(3)   0
 LI BND1      I591(3)   0
 LI BND1      I592(3)   0
 LI BND1      I593(3)   0
 LI BND1      I594(3)   0
 LI BND1      I595(3)   0
 LI BND1      I596(2)   0
 LI BND1      I597(3)   0
 LI BND1      I598(3)   0
 LI BND1      I599(3)   0
 LI BND1      I600(3)   0
 LI BND1      I601(3)   0
 LI BND1      I602(3)   0
 LI BND1      I603(3)   0
 LI BND1      I604(3)   0
 LI BND1      I605(3)   0
 LI BND1      I606(3)   0
 LI BND1      I607(2)   0
 LI BND1      I608(3)   0
 LI BND1      I609(3)   0
 LI BND1      I610(3)   0
 LI BND1      I611(3)   0
 LI BND1      I612(3)   0
 LI BND1      I613(3)   0
 LI BND1      I614(3)   0
 LI BND1      I615(3)   0
 LI BND1      I616(3)   0
 LI BND1      I617(2)   0
 LI BND1      I618(3)   0
 LI BND1      I619(3)   0
 LI BND1      I620(2)   0
 LI BND1      I621(3)   0
 LI BND1      I622(2)   0
 LI BND1      I623(3)   0
 LI BND1      I624(2)   0
 LI BND1      I625(2)   0
 LI BND1      I626(2)   0
 LI BND1      I627(2)   0
 LI BND1      I628(2)   0
 LI BND1      I629(2)   0
 LI BND1      I630(2)   0
 LI BND1      I631(2)   0
 LI BND1      I632(2)   0
 LI BND1      I633(2)   0
 LI BND1      I634(2)   0
 LI BND1      I635(2)   0
 LI BND1      I636(2)   0
 LI BND1      I637(2)   0
 LI BND1      I638(3)   0
 LI BND1      I639(1)   0
 LI BND1      I640(2)   0
 LI BND1      I641(3)   0
 LI BND1      I642(3)   0
 LI BND1      I643(3)   0
 LI BND1      I644(3)   0
 LI BND1      I645(3)   0
 LI BND1      I646(2)   0
 LI BND1      I647(3)   0
 LI BND1      I648(1)   0
 LI BND1      I649(2)   0
 LI BND1      I650(3)   0
 LI BND1      I651(3)   0
 LI BND1      I652(3)   0
 LI BND1      I653(3)   0
 LI BND1      I654(3)   0
 LI BND1      I655(3)   0
 LI BND1      I656(3)   0
 LI BND1      I657(3)   0
 LI BND1      I658(1)   0
 LI BND1      I659(2)   0
 LI BND1      I660(3)   0
 LI BND1      I661(3)   0
 LI BND1      I662(3)   0
 LI BND1      I663(3)   0
 LI BND1      I664(3)   0
 LI BND1      I665(3)   0
 LI BND1      I666(3)   0
 LI BND1      I667(1)   0
 LI BND1      I668(3)   0
 LI BND1      I669(2)   0
 LI BND1      I670(3)   0
 LI BND1      I671(1)   0
 LI BND1      I672(3)   0
 LI BND1      I673(3)   0
 LI BND1      I674(3)   0
 LI BND1      I675(3)   0
 LI BND1      I676(3)   0
 LI BND1      I677(3)   0
 LI BND1      I678(3)   0
 LI BND1      I679(3)   0
 LI BND1      I680(3)   0
 LI BND1      I681(1)   0
 LI BND1      I682(3)   0
 LI BND1      I683(1)   0
 LI BND1      I684(3)   0
 LI BND1      I685(3)   0
 LI BND1      I686(2)   0
 LI BND1      I687(3)   0
 LI BND1      I688(1)   0
 LI BND1      I689(2)   0
 LI BND1      I690(3)   0
 LI BND1      I691(3)   0
 LI BND1      I692(2)   0
 LI BND1      I693(2)   0
 LI BND1      I694(2)   0
 LI BND1      I695(2)   0
 LI BND1      I696(2)   0
 LI BND1      I697(2)   0
 LI BND1      I698(2)   0
 LI BND1      I699(2)   0
 LI BND1      I700(2)   0
 LI BND1      I701(2)   0
 BV BND1      B702(2) 
 BV BND1      B703(2) 
 BV BND1      B704(2) 
 BV BND1      B705(2) 
 BV BND1      B706(2) 
 BV BND1      B707(2) 
 BV BND1      B708(2) 
 BV BND1      B709(2) 
 BV BND1      B710(2) 
 BV BND1      B711(2) 
 BV BND1      B712(2) 
 BV BND1      B713(2) 
 BV BND1      B714(2) 
 BV BND1      B715(2) 
 BV BND1      B716(2) 
 BV BND1      B717(2) 
 BV BND1      B718(2) 
 BV BND1      B719(2) 
 BV BND1      B720(2) 
 BV BND1      B721(2) 
 BV BND1      B722(2) 
 BV BND1      B723(2) 
 BV BND1      B724(2) 
 BV BND1      B725(2) 
 BV BND1      B726(2) 
 BV BND1      B727(2) 
 BV BND1      B728(2) 
 BV BND1      B729(2) 
 BV BND1      B730(2) 
 BV BND1      B731(2) 
 BV BND1      B732(2) 
 BV BND1      B733(2) 
 BV BND1      B734(2) 
 BV BND1      B735(2) 
 BV BND1      B736(2) 
 BV BND1      B737(2) 
 BV BND1      B738(2) 
 BV BND1      B739(2) 
 BV BND1      B740(2) 
 BV BND1      B741(2) 
 BV BND1      B742(2) 
 BV BND1      B743(2) 
 BV BND1      B744(2) 
 BV BND1      B745(2) 
 BV BND1      B746(2) 
 BV BND1      B747(2) 
 BV BND1      B748(2) 
 BV BND1      B749(2) 
 BV BND1      B750(2) 
 BV BND1      B751(2) 
 BV BND1      B752(2) 
 BV BND1      B753(2) 
 BV BND1      B754(2) 
 BV BND1      B755(2) 
 BV BND1      B756(2) 
 BV BND1      B757(2) 
 BV BND1      B758(2) 
 BV BND1      B759(2) 
 BV BND1      B760(2) 
 BV BND1      B761(2) 
 BV BND1      B762(2) 
 BV BND1      B763(2) 
 BV BND1      B766(2) 
 BV BND1      B767(2) 
 BV BND1      B769(2) 
 BV BND1      B770(2) 
 BV BND1      B772(2) 
 BV BND1      B773(2) 
 BV BND1      B775(2) 
 BV BND1      B776(2) 
 BV BND1      B777(2) 
 BV BND1      B779(2) 
 BV BND1      B781(2) 
 BV BND1      B782(2) 
 BV BND1      B783(2) 
 BV BND1      B784(2) 
 BV BND1      B785(2) 
 BV BND1      B786(2) 
 BV BND1      B787(2) 
 BV BND1      B788(2) 
 BV BND1      B789(2) 
 BV BND1      B790(2) 
 BV BND1      B791(2) 
 BV BND1      B792(2) 
 BV BND1      B793(2) 
 BV BND1      B794(2) 
 BV BND1      B795(2) 
 BV BND1      B796(2) 
 BV BND1      B797(2) 
 BV BND1      B798(2) 
 BV BND1      B799(2) 
 BV BND1      B800(2) 
 BV BND1      B801(2) 
 BV BND1      B802(2) 
 BV BND1      B803(2) 
 BV BND1      B804(2) 
 BV BND1      B805(2) 
 BV BND1      B806(2) 
 BV BND1      B807(2) 
 BV BND1      B808(2) 
 BV BND1      B809(2) 
 BV BND1      B810(2) 
 BV BND1      B811(2) 
 BV BND1      B812(2) 
 BV BND1      B813(2) 
 BV BND1      B814(2) 
 BV BND1      B815(2) 
 BV BND1      B816(2) 
 BV BND1      B817(2) 
 BV BND1      B818(2) 
 BV BND1      B819(2) 
 BV BND1      B820(2) 
 BV BND1      B821(2) 
 BV BND1      B822(2) 
 BV BND1      B823(2) 
 BV BND1      B824(2) 
 BV BND1      B825(2) 
 BV BND1      B826(2) 
 BV BND1      B827(2) 
 BV BND1      B828(2) 
 BV BND1      B829(2) 
 BV BND1      B830(2) 
 BV BND1      B831(2) 
 BV BND1      B832(2) 
 BV BND1      B833(2) 
 BV BND1      B834(2) 
 BV BND1      B835(2) 
 BV BND1      B836(2) 
 BV BND1      B837(2) 
 BV BND1      B838(2) 
 BV BND1      B839(2) 
 BV BND1      B840(2) 
 BV BND1      B841(2) 
 BV BND1      B842(2) 
 BV BND1      B843(2) 
 BV BND1      B844(2) 
 BV BND1      B845(2) 
 BV BND1      B846(2) 
 BV BND1      B847(2) 
 BV BND1      B848(2) 
 BV BND1      B849(2) 
 BV BND1      B850(2) 
 BV BND1      B851(2) 
 BV BND1      B852(2) 
 BV BND1      B853(2) 
 BV BND1      B854(2) 
 BV BND1      B855(2) 
 BV BND1      B856(2) 
 BV BND1      B857(2) 
 BV BND1      B858(2) 
 BV BND1      B859(2) 
 BV BND1      B860(2) 
 BV BND1      B861(2) 
 BV BND1      B862(2) 
 BV BND1      B863(2) 
 BV BND1      B864(2) 
 BV BND1      B865(2) 
 BV BND1      B866(2) 
 BV BND1      B867(2) 
 BV BND1      B868(2) 
 BV BND1      B869(2) 
 BV BND1      B870(2) 
 BV BND1      B871(2) 
 BV BND1      B872(2) 
 BV BND1      B873(2) 
 BV BND1      B874(2) 
 BV BND1      B875(2) 
 BV BND1      B876(2) 
 BV BND1      B877(2) 
 BV BND1      B878(2) 
 BV BND1      B879(2) 
 BV BND1      B880(2) 
 BV BND1      B881(2) 
 BV BND1      B882(2) 
 BV BND1      B883(2) 
 BV BND1      B884(2) 
 BV BND1      B885(2) 
 BV BND1      B886(2) 
 BV BND1      B887(2) 
 BV BND1      B888(2) 
 BV BND1      B889(2) 
 BV BND1      B890(2) 
 BV BND1      B891(2) 
 BV BND1      B892(2) 
 BV BND1      B893(2) 
 BV BND1      B894(2) 
 BV BND1      B895(2) 
 BV BND1      B896(2) 
 BV BND1      B897(2) 
 BV BND1      B898(2) 
 BV BND1      B899(2) 
 BV BND1      B900(2) 
 BV BND1      B901(2) 
 BV BND1      B902(2) 
 BV BND1      B903(2) 
 BV BND1      B904(2) 
 BV BND1      B905(2) 
 BV BND1      B906(2) 
 BV BND1      B907(2) 
 BV BND1      B908(2) 
 BV BND1      B909(2) 
 BV BND1      B910(2) 
 BV BND1      B911(2) 
 BV BND1      B912(2) 
 BV BND1      B913(2) 
 BV BND1      B914(2) 
 BV BND1      B915(2) 
 BV BND1      B916(2) 
 BV BND1      B917(2) 
 BV BND1      B918(2) 
 BV BND1      B919(2) 
 BV BND1      B920(2) 
 BV BND1      B921(2) 
 BV BND1      B922(2) 
 BV BND1      B923(2) 
 BV BND1      B924(2) 
 BV BND1      B925(2) 
 BV BND1      B926(2) 
 BV BND1      B927(2) 
 BV BND1      B928(2) 
 BV BND1      B929(2) 
 BV BND1      B930(2) 
 BV BND1      B931(2) 
 BV BND1      B932(2) 
 BV BND1      B933(2) 
 BV BND1      B934(2) 
 BV BND1      B935(2) 
 BV BND1      B936(2) 
 BV BND1      B937(2) 
 BV BND1      B938(2) 
 BV BND1      B939(2) 
 BV BND1      B940(2) 
 BV BND1      B941(2) 
 BV BND1      B942(2) 
 BV BND1      B943(2) 
 BV BND1      B944(2) 
 BV BND1      B945(2) 
 BV BND1      B946(2) 
 BV BND1      B947(2) 
 BV BND1      B948(2) 
 BV BND1      B949(2) 
 BV BND1      B950(2) 
 BV BND1      B951(2) 
 BV BND1      B952(2) 
 BV BND1      B953(2) 
 BV BND1      B954(2) 
 BV BND1      B955(2) 
 BV BND1      B956(2) 
 BV BND1      B957(2) 
 BV BND1      B958(2) 
 BV BND1      B959(2) 
 BV BND1      B960(2) 
 BV BND1      B961(2) 
 BV BND1      B962(2) 
 BV BND1      B963(2) 
 BV BND1      B964(2) 
 BV BND1      B965(2) 
 BV BND1      B966(2) 
 BV BND1      B967(2) 
 BV BND1      B968(2) 
 BV BND1      B969(2) 
 BV BND1      B970(2) 
 BV BND1      B971(2) 
 BV BND1      B972(2) 
 BV BND1      B973(2) 
 BV BND1      B974(2) 
 BV BND1      B975(2) 
 BV BND1      B976(2) 
 BV BND1      B977(2) 
 BV BND1      B978(2) 
 BV BND1      B979(2) 
 BV BND1      B980(2) 
 BV BND1      B981(2) 
 BV BND1      B982(2) 
 BV BND1      B983(2) 
 BV BND1      B984(2) 
 BV BND1      B985(2) 
 BV BND1      B986(2) 
 BV BND1      B987(2) 
 BV BND1      B988(2) 
 BV BND1      B989(2) 
 BV BND1      B990(2) 
 BV BND1      B991(2) 
 BV BND1      B992(2) 
 BV BND1      B993(2) 
 BV BND1      B994(2) 
 BV BND1      B995(2) 
 BV BND1      B996(2) 
 BV BND1      B997(2) 
 BV BND1      B998(2) 
 BV BND1      B999(2) 
 BV BND1      B1000(2)
 BV BND1      B1001(2)
 BV BND1      B1002(2)
 BV BND1      B1003(2)
 BV BND1      B1004(2)
 BV BND1      B1005(2)
 BV BND1      B1006(2)
 BV BND1      B1007(2)
 BV BND1      B1008(2)
 BV BND1      B1009(2)
 BV BND1      B1010(2)
 BV BND1      B1011(2)
 BV BND1      B1012(2)
 BV BND1      B1013(2)
 BV BND1      B1014(2)
 BV BND1      B1015(2)
 BV BND1      B1016(2)
 BV BND1      B1017(2)
 BV BND1      B1018(2)
 BV BND1      B1019(2)
 BV BND1      B1020(2)
 BV BND1      B1021(2)
 BV BND1      B1022(2)
 BV BND1      B1023(2)
 BV BND1      B1024(2)
 BV BND1      B1025(2)
 BV BND1      B1026(2)
 BV BND1      B1027(2)
 BV BND1      B1028(2)
 BV BND1      B1029(2)
 BV BND1      B1030(2)
 BV BND1      B1031(2)
 BV BND1      B1032(2)
 BV BND1      B1033(2)
 BV BND1      B1034(2)
 BV BND1      B1035(2)
 BV BND1      B1036(2)
 BV BND1      B1037(2)
 BV BND1      B1038(2)
 BV BND1      B1039(2)
 BV BND1      B1040(2)
 BV BND1      B1041(2)
 BV BND1      B1042(2)
 BV BND1      B1043(2)
 BV BND1      B1044(2)
 BV BND1      B1045(2)
 BV BND1      B1046(2)
 BV BND1      B1047(2)
 BV BND1      B1048(2)
 BV BND1      B1049(2)
 BV BND1      B1050(2)
 BV BND1      B1051(2)
 BV BND1      B1052(2)
 BV BND1      B1053(2)
 BV BND1      B1054(2)
 BV BND1      B1055(2)
 BV BND1      B1056(2)
 BV BND1      B1057(2)
 BV BND1      B1058(2)
 BV BND1      B1059(2)
 BV BND1      B1060(2)
 BV BND1      B1061(2)
 BV BND1      B1062(2)
 BV BND1      B1063(2)
 BV BND1      B1064(2)
 BV BND1      B1065(2)
 BV BND1      B1066(2)
 BV BND1      B1067(2)
 BV BND1      B1068(2)
 BV BND1      B1069(2)
 BV BND1      B1070(2)
 BV BND1      B1071(2)
 BV BND1      B1072(2)
 BV BND1      B1073(2)
 BV BND1      B1074(2)
 BV BND1      B1075(2)
 BV BND1      B1076(2)
 BV BND1      B1077(2)
 BV BND1      B1078(2)
 BV BND1      B1079(2)
 BV BND1      B1080(2)
 BV BND1      B1081(2)
 BV BND1      B1082(2)
 BV BND1      B1083(2)
 BV BND1      B1084(2)
 BV BND1      B1085(2)
 BV BND1      B1086(2)
 BV BND1      B1087(2)
 BV BND1      B1088(2)
 BV BND1      B1089(2)
 BV BND1      B1090(2)
 BV BND1      B1091(2)
 BV BND1      B1092(2)
 BV BND1      B1093(2)
 BV BND1      B1094(2)
 BV BND1      B1095(2)
 BV BND1      B1096(2)
 BV BND1      B1099(2)
 BV BND1      B1100(2)
 BV BND1      B1101(2)
 BV BND1      B1102(2)
 BV BND1      B1103(2)
 BV BND1      B1104(2)
 BV BND1      B1105(2)
 BV BND1      B1106(2)
 BV BND1      B1107(2)
 BV BND1      B1108(2)
 BV BND1      B1109(2)
 BV BND1      B1110(2)
 BV BND1      B1111(2)
 BV BND1      B1112(2)
 BV BND1      B1113(2)
 BV BND1      B1114(2)
 BV BND1      B1115(2)
 BV BND1      B1116(2)
 BV BND1      B1117(2)
 BV BND1      B1118(2)
 BV BND1      B1119(2)
 BV BND1      B1120(2)
 BV BND1      B1121(2)
 BV BND1      B1122(2)
 BV BND1      B1123(2)
 BV BND1      B1124(2)
 BV BND1      B1125(2)
 BV BND1      B1126(2)
 BV BND1      B1127(2)
 BV BND1      B1128(2)
 BV BND1      B1129(2)
 BV BND1      B1130(2)
 BV BND1      B1131(2)
 BV BND1      B1132(2)
 BV BND1      B1133(2)
 BV BND1      B1134(2)
 BV BND1      B1135(2)
 BV BND1      B1136(2)
 BV BND1      B1137(2)
 BV BND1      B1138(2)
 BV BND1      B1139(2)
 BV BND1      B1140(2)
 BV BND1      B1141(2)
 BV BND1      B1142(2)
 BV BND1      B1143(2)
 BV BND1      B1144(2)
 BV BND1      B1145(2)
 BV BND1      B1146(2)
 BV BND1      B1147(2)
 BV BND1      B1148(2)
 BV BND1      B1149(2)
 BV BND1      B1150(2)
 BV BND1      B1151(2)
 BV BND1      B1152(2)
 BV BND1      B1153(2)
 BV BND1      B1154(2)
 BV BND1      B1155(2)
 BV BND1      B1156(2)
 BV BND1      B1157(2)
 BV BND1      B1158(2)
 BV BND1      B1159(2)
 BV BND1      B1160(2)
 BV BND1      B1161(2)
 BV BND1      B1162(2)
 BV BND1      B1163(2)
 BV BND1      B1164(2)
 BV BND1      B1165(2)
 BV BND1      B1166(2)
 BV BND1      B1167(2)
 BV BND1      B1168(2)
 BV BND1      B1169(2)
 BV BND1      B1170(2)
 BV BND1      B1171(2)
 BV BND1      B1172(2)
 BV BND1      B1173(2)
 BV BND1      B1174(2)
 BV BND1      B1175(2)
 BV BND1      B1176(2)
 BV BND1      B1177(2)
 BV BND1      B1178(2)
 BV BND1      B1179(2)
 BV BND1      B1180(2)
 BV BND1      B1181(2)
 BV BND1      B1182(2)
 BV BND1      B1183(2)
 BV BND1      B1184(2)
 BV BND1      B1185(2)
 BV BND1      B1186(2)
 BV BND1      B1187(2)
 BV BND1      B1188(2)
 BV BND1      B1189(2)
 BV BND1      B1190(2)
 BV BND1      B1191(2)
 BV BND1      B1192(2)
 BV BND1      B1193(2)
 BV BND1      B1194(2)
 BV BND1      B1195(2)
 BV BND1      B1196(2)
 BV BND1      B1197(2)
 BV BND1      B1198(2)
 BV BND1      B1199(2)
 BV BND1      B1200(2)
 BV BND1      B1201(2)
 BV BND1      B1202(2)
 BV BND1      B1203(2)
 BV BND1      B1204(2)
 BV BND1      B1205(2)
 BV BND1      B1206(2)
 BV BND1      B1207(2)
 BV BND1      B1208(2)
 BV BND1      B1209(2)
 BV BND1      B1210(2)
 BV BND1      B1211(2)
 BV BND1      B1212(2)
 BV BND1      B1213(2)
 BV BND1      B1214(2)
 BV BND1      B1215(2)
 BV BND1      B1216(2)
 BV BND1      B1217(2)
 BV BND1      B1218(2)
 BV BND1      B1219(2)
 BV BND1      B1220(2)
 BV BND1      B1221(2)
 BV BND1      B1222(2)
 BV BND1      B1223(2)
 BV BND1      B1224(2)
 BV BND1      B1225(2)
 BV BND1      B1226(2)
 BV BND1      B1227(2)
 BV BND1      B1228(2)
 BV BND1      B1229(2)
 BV BND1      B1230(2)
 BV BND1      B1231(2)
 BV BND1      B1232(2)
 BV BND1      B1233(2)
 BV BND1      B1234(2)
 BV BND1      B1235(2)
 BV BND1      B1236(2)
 BV BND1      B1237(2)
 BV BND1      B1238(2)
 BV BND1      B1239(2)
 BV BND1      B1240(2)
 BV BND1      B1241(2)
 BV BND1      B1242(2)
 BV BND1      B1243(2)
 BV BND1      B1244(2)
 BV BND1      B1245(2)
 BV BND1      B1246(2)
 BV BND1      B1247(2)
 BV BND1      B1248(2)
 BV BND1      B1249(2)
 BV BND1      B1250(2)
 BV BND1      B1251(2)
 BV BND1      B1252(2)
 BV BND1      B1253(2)
 BV BND1      B1254(2)
 BV BND1      B1255(2)
 BV BND1      B1256(2)
 BV BND1      B1257(2)
 BV BND1      B1258(2)
 BV BND1      B1259(2)
 BV BND1      B1260(2)
 BV BND1      B1261(2)
 BV BND1      B1262(2)
 BV BND1      B1263(2)
 BV BND1      B1264(2)
 BV BND1      B1265(2)
 BV BND1      B1266(2)
 BV BND1      B1267(2)
 BV BND1      B1268(2)
 BV BND1      B1269(2)
 BV BND1      B1270(2)
 BV BND1      B1271(2)
 BV BND1      B1272(2)
 BV BND1      B1273(2)
 BV BND1      B1274(2)
 BV BND1      B1275(2)
 BV BND1      B1276(2)
 BV BND1      B1277(2)
 BV BND1      B1278(2)
 BV BND1      B1279(2)
 BV BND1      B1280(2)
 BV BND1      B1281(2)
 BV BND1      B1282(2)
 BV BND1      B1283(2)
 BV BND1      B1284(2)
 BV BND1      B1285(2)
 BV BND1      B1286(2)
 BV BND1      B1287(2)
 BV BND1      B1288(2)
 BV BND1      B1289(2)
 BV BND1      B1290(2)
 BV BND1      B1291(2)
 BV BND1      B1292(2)
 BV BND1      B1293(2)
 BV BND1      B1294(2)
 BV BND1      B1295(2)
 BV BND1      B1296(2)
 BV BND1      B1297(2)
 BV BND1      B1298(2)
 BV BND1      B1299(2)
 BV BND1      B1300(2)
 BV BND1      B1301(2)
 BV BND1      B1302(2)
 BV BND1      B1303(2)
 BV BND1      B1304(2)
 BV BND1      B1305(2)
 BV BND1      B1306(2)
 BV BND1      B1307(2)
 BV BND1      B1308(2)
 BV BND1      B1309(2)
 BV BND1      B1310(2)
 BV BND1      B1311(2)
 BV BND1      B1312(2)
 BV BND1      B1313(2)
 BV BND1      B1314(2)
 BV BND1      B1315(2)
 BV BND1      B1316(2)
 BV BND1      B1317(2)
 BV BND1      B1318(2)
 BV BND1      B1320(2)
 BV BND1      B1321(2)
 BV BND1      B1322(2)
 BV BND1      B1323(2)
 BV BND1      B1324(2)
 BV BND1      B1325(2)
 BV BND1      B1326(2)
 BV BND1      B1327(2)
 BV BND1      B1328(2)
 BV BND1      B1329(2)
 BV BND1      B1330(2)
 BV BND1      B1331(2)
 BV BND1      B1332(2)
 BV BND1      B1333(2)
 BV BND1      B1334(2)
 BV BND1      B1335(2)
 BV BND1      B1336(2)
 BV BND1      B1337(2)
 BV BND1      B1338(2)
 BV BND1      B1339(2)
 BV BND1      B1340(2)
 BV BND1      B1341(2)
 BV BND1      B1342(2)
 BV BND1      B1343(2)
 BV BND1      B1344(2)
 BV BND1      B1345(2)
 BV BND1      B1346(2)
 BV BND1      B1347(2)
 BV BND1      B1348(2)
 BV BND1      B1349(2)
 BV BND1      B1350(2)
 BV BND1      B1351(2)
 BV BND1      B1352(2)
 BV BND1      B1353(2)
 BV BND1      B1354(2)
 BV BND1      B1355(2)
 BV BND1      B1356(2)
 BV BND1      B1357(2)
 BV BND1      B1358(2)
 BV BND1      B1359(2)
 BV BND1      B1360(2)
 BV BND1      B1361(2)
 BV BND1      B1362(2)
 BV BND1      B1363(2)
 BV BND1      B1364(2)
 BV BND1      B1365(2)
 BV BND1      B1366(2)
 BV BND1      B1367(2)
 BV BND1      B1368(2)
 BV BND1      B1369(2)
 BV BND1      B1370(2)
 BV BND1      B1371(2)
 BV BND1      B1372(2)
 BV BND1      B1373(2)
 BV BND1      B1374(2)
 BV BND1      B1375(2)
 BV BND1      B1376(2)
 BV BND1      B1377(2)
 BV BND1      B1378(2)
 BV BND1      B1379(2)
 BV BND1      B1380(2)
 BV BND1      B1381(2)
 BV BND1      B1382(2)
 BV BND1      B1383(2)
 BV BND1      B1384(2)
 BV BND1      B1385(2)
 BV BND1      B1386(2)
 BV BND1      B1387(2)
 BV BND1      B1388(2)
 BV BND1      B1389(2)
 BV BND1      B1390(2)
 BV BND1      B1391(2)
 BV BND1      B1392(2)
 BV BND1      B1393(2)
 BV BND1      B1394(2)
 BV BND1      B1395(2)
 BV BND1      B1396(2)
 BV BND1      B1397(2)
 BV BND1      B1398(2)
 BV BND1      B1399(2)
 BV BND1      B1400(2)
 BV BND1      B1401(2)
 BV BND1      B1402(2)
 BV BND1      B1403(2)
 BV BND1      B1404(2)
 BV BND1      B1405(2)
 BV BND1      B1406(2)
 BV BND1      B1407(2)
 BV BND1      B1408(2)
 BV BND1      B1409(2)
 BV BND1      B1410(2)
 BV BND1      B1411(2)
 BV BND1      B1412(2)
 BV BND1      B1413(2)
 BV BND1      B1414(2)
 BV BND1      B1415(2)
 BV BND1      B1416(2)
 BV BND1      B1417(2)
 BV BND1      B1418(2)
 BV BND1      B1419(2)
 BV BND1      B1420(2)
 BV BND1      B1421(2)
 BV BND1      B1422(2)
 BV BND1      B1423(2)
 BV BND1      B1424(2)
 BV BND1      B1425(2)
 BV BND1      B1426(2)
 BV BND1      B1427(2)
 BV BND1      B1428(2)
 BV BND1      B1429(2)
 BV BND1      B1430(2)
 BV BND1      B1431(2)
 BV BND1      B1432(2)
 BV BND1      B1433(2)
 BV BND1      B1434(2)
 BV BND1      B1435(2)
 BV BND1      B1436(2)
 BV BND1      B1437(2)
 BV BND1      B1438(2)
 BV BND1      B1439(2)
 BV BND1      B1440(2)
 BV BND1      B1441(2)
 BV BND1      B1442(2)
 BV BND1      B1443(2)
 BV BND1      B1444(2)
 BV BND1      B1445(2)
 BV BND1      B1446(2)
 BV BND1      B1447(2)
 BV BND1      B1448(2)
 BV BND1      B1449(2)
 BV BND1      B1450(2)
 BV BND1      B1451(2)
 BV BND1      B1452(2)
 BV BND1      B1453(2)
 BV BND1      B1455(2)
 BV BND1      B1456(2)
 BV BND1      B1458(2)
 BV BND1      B1459(2)
 BV BND1      B1460(2)
 BV BND1      B1461(2)
 BV BND1      B1462(2)
 BV BND1      B1463(2)
 BV BND1      B1464(2)
 BV BND1      B1465(2)
 BV BND1      B1466(2)
 BV BND1      B1467(2)
 BV BND1      B1468(2)
 BV BND1      B1469(2)
 BV BND1      B1470(2)
 BV BND1      B1471(2)
 BV BND1      B1472(2)
 BV BND1      B1473(2)
 BV BND1      B1474(2)
 BV BND1      B1475(2)
 BV BND1      B1476(2)
 BV BND1      B1477(2)
 BV BND1      B1478(2)
 BV BND1      B1479(2)
 BV BND1      B1480(2)
 BV BND1      B1481(2)
 BV BND1      B1482(2)
 BV BND1      B1483(2)
 BV BND1      B1484(2)
 BV BND1      B1485(2)
 BV BND1      B1486(2)
 BV BND1      B1487(2)
 BV BND1      B1488(2)
 BV BND1      B1489(2)
 BV BND1      B1490(2)
 BV BND1      B1491(2)
 BV BND1      B1492(2)
 BV BND1      B1493(2)
 BV BND1      B1494(2)
 BV BND1      B1495(2)
 BV BND1      B1496(2)
 BV BND1      B1497(2)
 BV BND1      B1499(2)
 BV BND1      B1500(2)
 BV BND1      B1502(2)
 BV BND1      B1503(2)
 BV BND1      B1504(2)
 BV BND1      B1505(2)
 BV BND1      B1506(2)
 BV BND1      B1507(2)
 BV BND1      B1508(2)
 BV BND1      B1509(2)
 BV BND1      B1510(2)
 BV BND1      B1511(2)
 BV BND1      B1512(2)
 BV BND1      B1513(2)
 BV BND1      B1515(2)
 BV BND1      B1516(2)
 BV BND1      B1517(2)
 BV BND1      B1519(2)
 BV BND1      B1520(2)
 BV BND1      B1521(2)
 BV BND1      B1522(2)
 BV BND1      B1523(2)
 BV BND1      B1524(2)
 BV BND1      B1525(2)
 BV BND1      B1526(2)
 BV BND1      B1527(2)
 BV BND1      B1528(2)
 BV BND1      B1529(2)
 BV BND1      B1530(2)
 BV BND1      B1531(2)
 BV BND1      B1532(2)
 BV BND1      B1533(2)
 BV BND1      B1534(2)
 BV BND1      B1535(2)
 BV BND1      B1536(2)
 BV BND1      B1537(2)
 BV BND1      B1538(2)
 BV BND1      B1539(2)
 BV BND1      B1540(2)
 BV BND1      B1541(2)
 BV BND1      B1542(2)
 BV BND1      B1543(2)
 BV BND1      B1544(2)
 BV BND1      B1545(2)
 BV BND1      B1546(2)
 BV BND1      B1547(2)
 BV BND1      B1549(2)
 BV BND1      B1551(2)
 BV BND1      B1552(2)
 BV BND1      B1553(2)
 BV BND1      B1554(2)
 BV BND1      B1555(2)
 BV BND1      B1556(2)
 BV BND1      B1557(2)
 BV BND1      B1559(2)
 BV BND1      B1560(2)
 BV BND1      B1561(2)
 BV BND1      B1562(2)
 BV BND1      B1563(2)
 BV BND1      B1564(2)
 BV BND1      B1565(2)
 BV BND1      B1566(2)
 BV BND1      B1567(2)
 BV BND1      B1569(2)
 BV BND1      B1570(2)
 BV BND1      B1571(2)
 BV BND1      B1573(2)
 BV BND1      B1574(2)
 BV BND1      B1575(2)
 BV BND1      B1576(2)
 BV BND1      B1577(2)
 BV BND1      B1578(2)
 BV BND1      B1579(2)
 BV BND1      B1580(2)
 BV BND1      B1581(2)
 BV BND1      B1582(2)
 BV BND1      B1583(2)
 BV BND1      B1584(2)
 BV BND1      B1586(2)
 BV BND1      B1588(2)
 BV BND1      B1589(2)
 BV BND1      B1590(2)
 BV BND1      B1591(2)
 BV BND1      B1592(2)
 BV BND1      B1593(2)
 BV BND1      B1594(2)
 BV BND1      B1595(2)
 BV BND1      B1596(2)
 BV BND1      B1597(2)
 BV BND1      B1598(2)
 BV BND1      B1599(2)
 BV BND1      B1600(2)
 BV BND1      B1601(2)
 BV BND1      B1602(2)
 BV BND1      B1603(2)
 BV BND1      B1604(2)
 BV BND1      B1605(2)
 BV BND1      B1606(2)
 BV BND1      B1607(2)
 BV BND1      B1608(2)
 BV BND1      B1609(2)
 BV BND1      B1610(2)
 BV BND1      B1611(2)
 BV BND1      B1612(2)
ENDATA
